LAMMPS data file via write_data, version 22 Jul 2025, timestep = 1000, units = metal

216 atoms
1 atom types

0 16.293 xlo xhi
0 16.293 ylo yhi
0 16.293 zlo zhi

Masses

1 28.0855

Atoms # atomic

1 1 16.282777400218787 0.15332182795453964 16.25487441817644 -1 0 -1
2 1 0.10727562862895676 2.7047816918195284 2.81005190154651 0 0 0
4 1 2.6474349351793096 2.727486018974325 0.0057273364205075224 0 0 0
5 1 1.2874752979620478 1.3876602485654825 1.3612082138107213 0 0 0
10 1 5.43704065457164 2.592525450352233 2.6237850654856474 0 0 0
12 1 8.026567309928405 2.6853535509103046 16.223203128503528 0 0 -1
13 1 6.796562658663733 1.3021499268790222 1.3668966534667668 0 0 0
18 1 10.866191326020184 2.6911296402524605 2.6879159384543714 0 0 0
21 1 12.065530930554223 1.3232646024596428 1.207211479106521 0 0 0
19 1 13.399665086899494 16.195551200617633 2.6703134086636906 0 -1 0
27 1 2.661102204241785 5.48869628936162 2.6604774904795985 0 0 0
8 1 4.0396736568376115 4.0425035508493625 1.4331979284156937 0 0 0
16 1 9.512618096255556 4.023034319709309 1.2744335564194458 0 0 0
35 1 8.08319844385808 5.342216034627948 2.5858710204964264 0 0 0
41 1 10.883258288498546 5.398390344397259 16.19577991688893 0 0 -1
24 1 14.952044758481438 4.031296286657088 1.4806154074762712 0 0 0
43 1 13.501168157985209 5.541701767759366 2.6496812592631125 0 0 0
28 1 2.595267761435464 8.306291496205208 16.284497069621604 0 0 -1
29 1 1.3126822050289235 6.762932703698163 1.3005117313022327 0 0 0
32 1 4.000548727987023 9.484892407226702 1.368631183660054 0 0 0
34 1 5.415635057546557 8.10948902719999 2.7243200987145757 0 0 0
37 1 6.809932471005369 6.82090186452404 1.3617098395272116 0 0 0
40 1 9.474608938951866 9.46550269522868 1.1563452510943684 0 0 0
42 1 10.785878344557196 8.07760311786187 2.610710191274438 0 0 0
45 1 12.127460649258632 6.82383128920924 1.3127947599429126 0 0 0
26 1 0.12556285284760094 8.149472957341557 2.7841027915438485 0 0 0
48 1 14.940264313658265 9.504598139479016 1.4895474566048135 0 0 0
51 1 2.500528140985391 10.842080299309508 2.72023211217458 0 0 0
53 1 1.2100948068189188 12.284025387220444 1.326649905858213 0 0 0
59 1 8.263742646590458 10.747321296676024 2.7532327015585567 0 0 0
61 1 6.6855107899992285 12.15108692177209 1.3517296843345643 0 0 0
69 1 12.139810022440567 12.267268611112247 1.363194843980872 0 0 0
49 1 16.229663694907774 10.823095953792448 0.030923244888570102 -1 0 0
67 1 13.510232735341962 10.86829231956103 2.707347882951569 0 0 0
3 1 2.7036708167586503 0.025702349995423646 2.5870972259300897 0 0 0
52 1 2.4724934332671245 13.672824939907187 16.283104620573308 0 0 -1
56 1 4.064675713333527 14.998371075658634 1.3351381877753221 0 0 0
58 1 5.407404038392068 13.582861140752534 2.6140249087935525 0 0 0
11 1 8.113687975103424 16.218945092526493 2.624301326315016 0 -1 0
64 1 9.554675424390577 15.044140921359023 1.341931781022759 0 0 0
17 1 10.786663515793313 0.03746979740272849 16.07042090905271 0 0 -1
66 1 10.827566058112453 13.644093335653128 2.59540183893435 0 0 0
50 1 0.06674258688860846 13.50565418763785 2.7158850820997147 0 0 0
68 1 13.668481870173576 13.601105053026043 0.12020363795607894 0 0 0
72 1 15.091981369115965 15.068090160864507 1.386879463169444 0 0 0
73 1 0.098618650493576 0.12258144688573827 5.443609748156158 0 0 0
76 1 2.7261064458880013 2.700679602770772 5.378687345394959 0 0 0
7 1 4.016045268243712 1.2681542700776771 4.020157230016686 0 0 0
15 1 9.497301498923306 1.2382349312305903 3.89363077833996 0 0 0
84 1 7.987666285809158 2.5682321936477552 5.2928902809502745 0 0 0
89 1 10.904177085403619 16.27852787827445 5.381969475113327 0 -1 0
23 1 14.999206470194054 1.2250503969466173 4.087171901285965 0 0 0
92 1 13.772301546560206 2.698203298388823 5.512824610882809 0 0 0
6 1 1.4948603543722416 4.043754339721151 4.163884544487426 0 0 0
97 1 0.15418247241253027 5.427140855509828 5.3455672014621705 0 0 0
105 1 5.460105375553314 5.475786929468385 5.347205175742011 0 0 0
14 1 6.78753878392686 3.9378755522634976 3.9099818099995125 0 0 0
22 1 12.3172502965472 4.072001084949599 4.016156735377887 0 0 0
113 1 10.78382175981984 5.33933075220409 5.270692741827089 0 0 0
30 1 1.4553843703802296 9.438355626704041 4.155146093729313 0 0 0
100 1 2.8540176209095858 8.158543674718997 5.400020945828181 0 0 0
31 1 4.084294134103714 6.729832702716525 3.9755804508206873 0 0 0
38 1 6.776047529404137 9.62825506811049 4.141981458418323 0 0 0
39 1 9.414685945322608 6.811545486791601 4.0217520996774585 0 0 0
108 1 8.191899163093867 8.176933622868654 5.402983658809183 0 0 0
46 1 12.185364986112297 9.535042060871616 4.1028426948748535 0 0 0
47 1 14.985553847443544 6.75106513350733 3.9643010280782907 0 0 0
116 1 13.580620400985875 8.043589637077027 5.411891253858744 0 0 0
121 1 16.27730313266057 10.917831440831554 5.34262454726644 -1 0 0
55 1 3.9731227258914066 12.235808044087458 3.9697324284959765 0 0 0
129 1 5.343870858350261 10.991674220000183 5.405136598516466 0 0 0
63 1 9.55476793732927 12.347033114618329 4.051057209984091 0 0 0
137 1 10.900762795701837 10.90200538828406 5.466272743517385 0 0 0
71 1 14.897445488347671 12.250918578426674 4.014781015627376 0 0 0
54 1 1.4033833133113918 15.022975763299822 4.127091757470004 0 0 0
124 1 2.7307704522697858 13.569155454290856 5.397777732302117 0 0 0
81 1 5.523287578351955 16.2660622244167 5.423735816581112 0 -1 0
62 1 6.8687473844262446 14.860468856198255 3.986198281949406 0 0 0
132 1 8.173378098118196 13.570834429652006 5.432125319885917 0 0 0
70 1 12.213035416405695 14.866164227934952 4.169496494859391 0 0 0
140 1 13.748907843360659 13.616378135498456 5.445034382554284 0 0 0
74 1 0.08366394526440213 2.7435106471260386 8.199389677931814 0 0 0
75 1 2.7212185732129117 16.22482974162703 8.112967237882694 0 -1 0
77 1 1.4083204199246373 1.4600734603335064 6.829160768637127 0 0 0
79 1 3.997210572380496 1.2902144692790563 9.386212846696804 0 0 0
82 1 5.527864989540061 2.7283581101075773 8.257240198221064 0 0 0
85 1 6.76800446700829 1.2207357065292224 6.920585349454889 0 0 0
87 1 9.411459267382472 1.2519663522898377 9.54170947937954 0 0 0
90 1 10.806707413223766 2.756063312643369 8.195436433753562 0 0 0
93 1 12.276652260561463 1.4486875350217958 6.744511685240869 0 0 0
91 1 13.555523167932936 0.11807531539726818 8.096348524879366 0 0 0
95 1 14.889943221623229 1.3994601526015773 9.47020354575684 0 0 0
78 1 1.4354505750575117 4.001256694626124 9.547456389987447 0 0 0
99 1 2.6957084515824166 5.395133184511889 8.146605729741857 0 0 0
80 1 4.068215223060196 4.0276216928778625 6.659463713813369 0 0 0
86 1 6.9616882238579745 4.114727175442803 9.70998461992394 0 0 0
88 1 9.418897913495272 3.8648936579094695 6.650003167849529 0 0 0
107 1 8.117059003565084 5.308673441981311 8.161456481437455 0 0 0
94 1 12.232964081824173 4.085468821522126 9.61840318289192 0 0 0
96 1 15.039450380504944 4.146671613525275 6.820709778967308 0 0 0
115 1 13.597093544083258 5.49512559448017 8.03895953935611 0 0 0
98 1 0.10873615608173254 8.261227975835112 8.048683996306718 0 0 0
101 1 1.412299009718369 6.745471324461823 6.770153220756246 0 0 0
102 1 1.373696077129857 9.52967232652248 9.609549995127699 0 0 0
103 1 4.206755950479544 6.750376325423629 9.443011801232615 0 0 0
104 1 4.124647379106506 9.47645522361053 6.700770205494559 0 0 0
106 1 5.522093932130466 8.205257411163307 8.143018857408695 0 0 0
109 1 6.8500350183170235 6.823041155816243 6.939052493759481 0 0 0
110 1 6.853510781196823 9.537356782133301 9.476387581823033 0 0 0
111 1 9.471832411365689 6.72959833524633 9.563369097301086 0 0 0
112 1 9.530398970850575 9.421689958402144 6.6577098599621864 0 0 0
114 1 10.770865833407003 8.041853196739789 8.129197487970288 0 0 0
117 1 12.161789253409502 6.708113440167935 6.67851160250455 0 0 0
118 1 12.158250170236537 9.536315311922618 9.531435092121729 0 0 0
119 1 14.899365238009171 6.823120505660353 9.373573328787508 0 0 0
120 1 14.915807106641918 9.39283684749872 6.674577601791748 0 0 0
123 1 2.725257349945094 10.825021445906401 8.088071764994966 0 0 0
125 1 1.3730922455532855 12.280680622051001 6.782702986227099 0 0 0
127 1 3.9183950497285616 12.2621148592697 9.420433106142895 0 0 0
131 1 8.24253741914093 10.817025435938628 8.117560689580184 0 0 0
133 1 6.85854336807522 12.177954337933999 6.791647353647463 0 0 0
135 1 9.521971957344682 12.298173177870112 9.467904513988929 0 0 0
141 1 12.298264833792205 12.316279239010221 6.761758511252257 0 0 0
139 1 13.590730822175441 10.807750745114738 8.043781633562146 0 0 0
143 1 14.932070603053381 12.296671867819766 9.449300858662177 0 0 0
122 1 0.06669627651750111 13.635440276679157 8.208726035057651 0 0 0
126 1 1.3981629201163837 14.976754906582086 9.579478030527907 0 0 0
128 1 4.065704307404605 14.863287389562684 6.790799018067418 0 0 0
130 1 5.412319588101216 13.514253054820061 8.286364364498327 0 0 0
83 1 8.140931927007365 16.0934096526593 8.057654827702219 0 -1 0
134 1 6.953807849333901 14.942334406294695 9.548875183865736 0 0 0
136 1 9.564794513027307 14.914653352534664 6.706036638811953 0 0 0
138 1 10.82881795588512 13.688140313679249 8.134203622856493 0 0 0
142 1 12.277229002560802 14.9514746225336 9.531812140443662 0 0 0
144 1 15.006494200893298 15.043436646896678 6.784317753666122 0 0 0
148 1 2.757236229013235 2.63019218324898 10.921122162411129 0 0 0
149 1 1.3701986783818252 1.3101493015201933 12.271187165672412 0 0 0
156 1 8.150702945514798 2.5141868121867916 10.903455410302385 0 0 0
157 1 6.741045226138939 1.208129494230113 12.39313584922463 0 0 0
165 1 12.3248512840031 1.255269578332402 12.307426728783895 0 0 0
145 1 0.022456197441325543 0.07477606325477831 10.788721159945558 0 0 0
164 1 13.53820218860942 2.699738660239936 10.929933790925894 0 0 0
169 1 0.04234512778592522 5.490390920561219 10.826770210060287 0 0 0
152 1 4.100085613256652 4.1031655684469275 12.371713126752486 0 0 0
177 1 5.4265978662808125 5.426043923974915 10.91961873606136 0 0 0
160 1 9.42394858278834 3.938098505366903 12.3095378176012 0 0 0
185 1 10.821639485407212 5.415446088623079 11.05106977979096 0 0 0
168 1 14.948371632512183 4.135192190868799 12.23200960482464 0 0 0
172 1 2.7961425923163152 8.054186725621035 10.846904259127015 0 0 0
173 1 1.377707016184969 6.860587869122227 12.265373216982832 0 0 0
176 1 4.034174575168877 9.521581965771992 12.194683545678245 0 0 0
180 1 8.049243047407328 8.144858663516068 10.892909856491016 0 0 0
181 1 6.6966720724110465 6.84703792887029 12.194069427573542 0 0 0
184 1 9.495572684769131 9.50402323743861 12.224410261028725 0 0 0
189 1 12.228945929224025 6.706031872661051 12.304550977378376 0 0 0
188 1 13.590252930726205 8.066586058707491 10.864662955529935 0 0 0
192 1 14.96954066669964 9.36804431104185 12.115487851663177 0 0 0
193 1 16.27463715180616 10.859277867220579 10.892829512783624 -1 0 0
197 1 1.3765153742655702 12.255462165261275 12.237100466370265 0 0 0
201 1 5.27180770674328 10.91170405164759 10.862595979275362 0 0 0
205 1 6.641754648105691 12.260412040401928 12.343537647385187 0 0 0
209 1 10.960034503624955 10.872467091949126 10.852487313120893 0 0 0
213 1 12.321115683189596 12.362766829390457 12.198812815540473 0 0 0
196 1 2.7268765759463003 13.650573220376913 10.783174100169605 0 0 0
153 1 5.422799754413122 16.277826212777942 10.892090316373201 0 -1 0
200 1 4.048998753375359 14.911875562133766 12.302613475180417 0 0 0
204 1 8.085902028524211 13.545467110597372 10.97454059633208 0 0 0
208 1 9.592809416893784 14.961291284470018 12.2478178993848 0 0 0
161 1 10.998405741905497 0.05996916171750044 10.934709090812055 0 0 0
212 1 13.549686535552745 13.655254246940139 10.766130774794778 0 0 0
216 1 15.05617380279238 14.94441976283938 12.092579995066668 0 0 0
146 1 0.006078675678841622 2.79894920981036 13.642881935615694 0 0 0
151 1 3.965185290461469 1.3064624751979281 15.021326870315024 0 0 0
154 1 5.34071016223619 2.737197295476284 13.738211976219652 0 0 0
159 1 9.520436125604837 1.4062319716129852 14.826497526884328 0 0 0
162 1 10.877615312927162 2.759297357134953 13.632281859633345 0 0 0
20 1 13.60009150310909 2.7886636599523293 0.13303810685230033 0 0 0
163 1 13.76144956536294 16.25373387564715 13.663757915408349 0 -1 0
167 1 14.940312575325297 1.4646657073392593 15.059917501468846 0 0 0
150 1 1.356102617898769 4.098892945498163 14.945083249412324 0 0 0
171 1 2.7260778992545047 5.449890282121704 13.64975234773135 0 0 0
33 1 5.412256942780319 5.4529368921868135 0.0742209194731629 0 0 0
158 1 6.737015289198487 4.024691614885434 14.961586807465851 0 0 0
179 1 8.069310324112145 5.452545547418808 13.530066492693749 0 0 0
166 1 12.300610121787667 4.171056862839487 14.926316900591162 0 0 0
25 1 0.03093986861209075 5.376547574892782 0.12209588584224917 0 0 0
187 1 13.712036673838087 5.573332448751511 13.67465012078578 0 0 0
170 1 16.251184098806892 8.204158898597852 13.527313942913112 -1 0 0
174 1 1.2391393629609713 9.582064527020774 14.844265364844913 0 0 0
175 1 3.9991182627495556 6.818379102815069 15.101546292132433 0 0 0
178 1 5.268920012288887 8.137827083994564 13.671813644138107 0 0 0
36 1 8.124627218093218 8.194920824050104 0.0404088703295713 0 0 0
182 1 6.740304077570828 9.612157997011376 14.970056875257173 0 0 0
183 1 9.40087459819131 6.699674079865058 14.967942019298906 0 0 0
186 1 10.867914380116046 8.028336249995313 13.665867214837819 0 0 0
190 1 12.177191497928883 9.430347502394277 14.869358302785898 0 0 0
44 1 13.595188905315014 8.154218074762337 0.084906670574739 0 0 0
191 1 15.019366482644685 6.907292011827406 15.096106113614079 0 0 0
195 1 2.7422031342857895 10.892024716457053 13.619574712270037 0 0 0
57 1 5.263662722101739 10.968338433358452 0.04812607764841914 0 0 0
199 1 3.9336168439535286 12.291345400155086 15.020856572471631 0 0 0
203 1 8.142653569721164 10.86787548579069 13.516524580504838 0 0 0
207 1 9.526386492934632 12.311149918065466 14.853399589014245 0 0 0
65 1 10.83970556745016 10.860570359909385 16.110269016138297 0 0 -1
211 1 13.66785562338346 10.798959287502742 13.540314898533909 0 0 0
215 1 14.943728074956873 12.183595588485074 14.987437685573015 0 0 0
147 1 2.6722894108976325 16.290748898324424 13.552582451771858 0 -1 0
198 1 1.2234244388843691 15.014804443540031 15.0093129517313 0 0 0
9 1 5.389000186083889 16.283243151878747 0.018262763730348297 0 -1 0
202 1 5.379406942911856 13.597939990014885 13.78022647088012 0 0 0
60 1 8.147435447149245 13.553958926466873 0.1123594753700985 0 0 0
155 1 8.11107409281026 16.27137538461539 13.633827865750646 0 -1 0
206 1 6.746505112069333 14.828851479123808 14.978177498963893 0 0 0
210 1 11.037041387594021 13.517835672748644 13.626654803634949 0 0 0
214 1 12.333452147931016 15.018320421522187 15.00803382788719 0 0 0
194 1 16.272164426119797 13.61828296642529 13.6096661010269 -1 0 0

Velocities

1 3.8756943486929485 5.595649140107004 -3.382035130204828
2 -3.0275243299249484 -3.5908876607267683 -1.0869517481350366
4 -0.622585608656481 -5.1409435294250745 -0.6943853122897309
5 -2.127579659185097 5.997547769953831 7.490415493126455
10 -9.623063219160207 -2.8939872501468717 4.486693400351138
12 10.36167200472335 1.1773437470511003 7.11222837443287
13 -1.3291505177352607 -1.597136588482151 6.970499982870139
18 3.184804467986145 -1.0896515623027767 -1.4687181866157846
21 -0.8681721262658169 3.9161782122243514 -0.7154302915195392
19 -0.314471824247179 -1.009161009047326 6.112131721962218
27 -4.244681173622879 6.462555797747679 6.223982393910552
8 2.1151581979755085 -7.12950138851509 -1.4421932985332635
16 5.501083335317996 3.644917595547211 -2.648878590316265
35 10.437346638763495 -0.6816728044196414 -5.093232014010162
41 6.034181668630533 -10.958953677084422 4.340960187554758
24 -4.148754375723706 5.520804005073839 -2.1448417337942813
43 7.057679502298162 -3.928412660445814 1.9790222395949844
28 -6.157230648551448 3.9620100059570356 -10.236030235232883
29 -5.090228432408775 -5.271486928059233 7.560708602801447
32 -0.6527430795102039 -7.106721476431516 4.799531312662575
34 3.6416123062325894 -7.7379610646489425 -2.567724986046728
37 5.448667744666167 7.026174323475878 1.1857816224978652
40 -5.6722125708039295 2.009622609871341 2.082995153236668
42 2.885781646326172 -0.22394916669096865 -3.066759591775079
45 7.270675457971841 3.9922602834324503 5.81789032668342
26 -5.3332978191132625 5.959245309211405 2.0710852938286224
48 1.2349907345371605 2.2628594748265116 -1.4906432092146036
51 1.842600125890927 -1.2301079098596306 -1.3048004505886075
53 -2.3507803204471363 2.8704467389688384 -2.317347570475092
59 -5.782666095957072 2.33444912381251 -4.265165961574249
61 -2.363569148818012 -4.100587246795821 5.413813267775811
69 -11.62586964769064 -2.2802395884043167 4.07735781677116
49 -2.5202512693262182 -5.43776865487462 -5.888423115454219
67 -6.372367827218573 -1.7590493853861944 0.8211888996848554
3 -0.19483246572705226 -1.8878986999496592 1.3116343261598549
52 5.4821106159379 1.9068136437891945 -2.2872458285567685
56 4.825516723173189 -3.3336416720246236 11.940061560498075
58 -3.0463453833349314 -6.324416651768859 -4.610363459977529
11 -7.165234407297718 0.4694852382499855 -7.002719398453824
64 -5.790487410998283 -5.335185072637261 -2.7428018723015106
17 -1.911499167628969 4.369772807654575 -1.7875395770107596
66 1.981607951144296 1.3407782934399812 -2.263598255318187
50 -4.290601990378057 8.511747692643999 -11.056912787192111
68 -6.242680507337734 -2.247149164722311 -0.25140498610010215
72 -7.252808546113607 3.963434461974425 2.1931911515171665
73 -1.227183768541045 -1.7935880374002655 -3.8135688267680083
76 0.36527938595597254 2.782398130475816 -3.391479913322948
7 -0.253496061393504 -7.6518053609302 -1.366028669496655
15 5.3568706260053816 5.937446279789639 1.2458720197938755
84 -5.848313306120897 7.243556832422542 11.45557744639917
89 6.579529800315124 2.5798296831202925 -0.67440641210686
23 1.9695164981951307 -1.2499880949492757 4.609759224680172
92 4.32608128064501 3.5921877186605857 0.9043265878605262
6 -5.214573713209552 0.6625041808169012 0.6543919928695365
97 0.1998656923625492 7.785074297226735 5.029058389416253
105 -1.6776411215661107 -2.5736137633212 -6.192967639683083
14 -1.1917922639472238 -1.0481856356449382 -2.711901760155735
22 3.925835996460037 -2.145719313048089 -2.020323424886826
113 -1.6512862985680623 -0.5987252946991061 -0.16881372397074293
30 -2.088927771523556 -1.9536603915253878 -3.6593038023742914
100 0.24596327759385933 3.0432946200916486 3.218952676979499
31 -2.7955343263838164 2.535369009659406 5.971346129630609
38 -1.5723126904323397 7.02610184330725 9.215853889205608
39 0.6696975884530896 -2.5915230166286762 -4.323559311767097
108 3.966902931745893 -8.390578477611733 -3.2129107113819124
46 -1.4787897084207708 2.1722586996043964 -4.456580598566867
47 0.9875550874371083 -1.5513888927895356 -2.1525889836891428
116 -0.21748904233560915 10.52455032014173 -2.176690863702026
121 -2.5646610422746168 -5.936055581687932 -5.243912464536361
55 -0.8325945338740577 -1.262756672718221 4.7757875557939515
129 -5.105134423882818 -7.2938603968939 3.5726320446609017
63 -6.331662628952737 1.097530902220777 -4.6450696610192965
137 9.472042684479797 -0.7318237586999715 4.244055767179543
71 4.286136785914568 -0.8633047622703418 0.5565352097549806
54 3.363144300517072 2.2552166906964164 3.9317134201038715
124 -2.348218200688402 0.34299025701057356 13.861118606523098
81 -1.9955221022255796 -1.0293988091778943 -2.885984480231674
62 0.6551071966492988 5.372705228360579 7.552784798616531
132 4.5101823501358425 -1.9150819835336534 -1.90224610055558
70 0.4983892153977501 -3.4903616063110507 -7.557930426591745
140 -4.147587401276758 4.338098346567855 -2.7480377631845014
74 -1.9281639700173623 4.020255219376884 -5.003075011202101
75 16.283729305006897 -0.2597964036162057 5.2025421502631914
77 -8.163216044101443 0.40886148851904397 -0.6247709112508764
79 7.558261878642867 -6.59969360974251 -0.742778424940273
82 1.2580970122834654 -1.4946760161993091 -5.020574924708234
85 1.3397445789242715 -0.2936833440023797 6.262170264494019
87 -1.5691817728423305 -4.482748441183798 -3.0316560798544514
90 8.368960755049551 -4.840046926695433 0.9850570493844258
93 10.481736393505912 -1.1014413305273552 -0.6773104399250168
91 -5.478667676006141 1.6615088647502176 -0.9560658369056141
95 4.331159765298691 1.4337440060903675 0.7238680396186549
78 2.375083880300371 -0.9137541627170056 -2.548385961049964
99 7.885902476971312 1.0781373324919161 6.9781451924863145
80 -0.7715821240086875 -5.944865935609991 -0.36105554011310803
86 -0.4244978826963483 -0.6210659199034879 2.0458039884696295
88 -7.926308426460311 4.813844369974204 3.0598326160564557
107 -0.742388296359008 -6.586486617213279 3.60102254462472
94 1.0707907024811896 -0.6117439135263472 2.3829844819186037
96 4.472150409209509 -3.973363206449308 9.86476221889891
115 4.220136726135895 0.4207854816632953 -4.512845776553231
98 4.277970840455715 5.644740544382907 -7.600289496350445
101 5.133086023025 9.86718500061582 -1.830167421431808
102 3.05829815145233 -3.868488998210875 -2.5321963128566
103 -2.687091732608829 -2.4617949007977837 -7.79882583943203
104 -4.99484296255483 5.122565063147143 -2.602360523489826
106 -3.734089833596147 1.003578587233521 3.3967638999531995
109 -1.2628506075761374 -2.2922432503614485 3.4251691495223673
110 1.419340319728956 -7.1120463887948375 -4.320603560104627
111 2.9256648123002664 -2.995823190939441 -1.3828858094575658
112 0.11143960811503985 -1.3390623415893312 0.3457685818593753
114 -1.9896664739139176 -3.5210607119293873 0.1678254978817708
117 0.7825733332942411 -0.11810176823134899 -3.9224951361249856
118 -4.322695710892079 7.1815512773190235 0.0065670196157935345
119 4.207368452531553 1.1529229657162057 3.634197914981449
120 7.368038881999235 0.22519880242708623 -0.35968754158885863
123 -4.444445935583258 -6.927319993501174 1.5152863019254335
125 -7.525129636167805 -6.447258488606124 3.4453965765922847
127 8.640594911864687 -8.46211414482516 -3.448131467201639
131 -3.107374760349238 -3.7971261342138902 -0.7260987146020975
133 0.4540337099413067 -3.524167754383111 -2.6219757536475368
135 -3.615678940708052 -4.2201995576849685 4.2417980708104555
141 7.1672675892823445 -4.529165445780603 -4.730014018269228
139 -4.678524937888046 1.5569964017275177 -4.8850654367745365
143 -1.5463162946879634 -5.088392143478225 0.18371970294473738
122 7.279767073937234 1.6934590206437652 -6.578743358204281
126 0.9822759445848271 6.2553772458825465 0.6891968468067815
128 2.823035246616532 6.05519988619882 7.8536471025734835
130 -1.8685438637343041 7.036264836018601 1.6314890309719472
83 2.630293951968336 0.5029076810079458 1.470355255395824
134 0.9007731522790334 -1.5732422606434353 -0.022338594137544035
136 1.6659399100834085 -0.9105287935420139 1.8649035621995114
138 2.490537067997793 0.21548534616084847 4.494750573426355
142 -2.9413953705867586 7.472515305857554 -1.6283062962510848
144 8.822514203799884 -4.667945243386608 -4.910025991136064
148 6.400554266494019 -0.3771415579990558 1.4030913006466603
149 1.8826736118693574 3.4366832905732614 0.4329173569124499
156 3.0178377224043973 1.6664431701663365 -2.2194809532026687
157 -2.650170790423339 -1.6521616022658503 -11.383559060524089
165 3.310944625383133 2.8410695117285467 1.401751556276299
145 -8.207251923481067 7.292032588576671 -0.21951600236217983
164 -2.86379452675269 -11.299442383676801 0.39994429483161453
169 -3.1687497610267026 1.4015004113210054 -2.7095340485943784
152 1.4096758986705684 7.930511701166645 4.859824233370724
177 0.04261919478809221 -5.874165557959999 3.8972545983310525
160 -0.47889175270673195 0.2580758870848441 1.2770160185076356
185 7.0976743380368035 5.54600993649809 5.03493337257499
168 4.116241306662643 1.1397053236952488 -1.7560435387809918
172 5.590901383747368 -0.12779085816500793 -4.579709874983517
173 -6.799843024067908 -3.6631570500331967 0.6258393964430423
176 0.7449027808981337 -3.6067369746879363 3.2881766133477557
180 -1.1526275659073772 0.6847276125597362 -6.323475789972643
181 1.5473482260380318 -0.8078764861708023 3.4106464830081156
184 -4.093198419177857 5.3504427635556935 -2.0600636866500945
189 -5.477712235961354 -1.782502064187692 -1.5535321157034103
188 -2.598061429687009 7.646029136738469 4.090375013520988
192 3.3893092158326814 1.930481265443136 2.394577753271542
193 2.1208317235431906 3.534567838485201 -9.062664422571274
197 -8.004586204359935 3.3357745335315117 1.3077758583678247
201 -3.7386778318761573 2.894992486409771 -1.9349262971174446
205 -7.5305709410317405 -6.591943851026438 -4.6430526220522825
209 -0.8469694477096162 1.9518056471197767 2.118626144535646
213 7.676849013644597 0.2778679885335392 1.4503401011127885
196 2.5789772915900357 -2.519895646246826 -6.920343336239548
153 0.6420861360933775 -2.936447280467839 4.826651972692851
200 0.31592387992667675 3.5200602078428416 5.43038508998619
204 4.364713862669948 -2.784087490052757 7.032633478213936
208 -2.58347742346945 -4.481590947169276 2.132692189324259
161 -2.6503330328508605 -8.715995134120949 -1.5497449202167464
212 4.583928406689157 -1.189500949192171 -2.509652274203078
216 2.073957415983926 0.4714708629618744 3.5894851768806775
146 -5.0573642567495405 -1.0948222136402337 -0.41174407088400095
151 1.4134854160190229 7.068427206325954 -5.457262082606043
154 3.5521558482814757 1.6525006450415691 4.211236658002771
159 3.6354665046644428 -8.503677890791458 -3.8651967765250212
162 -1.8909790113878293 6.60879939113592 1.5267012358550731
20 0.5443080059749934 1.1963689258279655 0.42528761675005033
163 -2.0392428962750695 -1.7817852366606444 -3.476542342653141
167 -1.0390433384339743 -5.948034171964131 0.9033823034471786
150 -3.45704378568584 2.410207951303471 -1.581510499523505
171 7.83038380306469 4.72339641022515 -4.579414798939859
33 -4.735482400421855 3.422641057151187 4.126683019832206
158 3.853551903139813 0.5059985409668415 -0.9230834871450343
179 -6.020040739437963 0.8830008642716598 -4.993739970861609
166 -4.695019249758429 0.5408998757756203 2.7122344108847023
25 -0.42537544749765543 7.714942366746837 -0.6566824774305682
187 -6.867048754686809 -1.2744538359440167 -0.684496407645987
170 0.2856044559342638 0.21327855404304186 4.405130909158896
174 -3.6353023632014936 1.5084925922066825 -3.6541382106143576
175 3.950388736084853 -1.7961891931941723 2.8682662992560775
178 -0.9703798545226758 -1.4799525690102113 -2.804703184035565
36 3.919038536011383 -1.843211280873285 4.656634597271969
182 0.028941646516393985 -0.27210412002562034 -3.716688492084699
183 -4.854854525967788 0.5701784546696462 -6.1355526611314675
186 0.8714754828688085 0.16753139878654794 2.710360973858261
190 1.4260824465525115 -8.16734000010402 -0.6559305786252172
44 -1.3957430970517666 -4.605301039915817 -4.057299233837437
191 -4.802670734963863 3.7655554319799065 -0.08722813686107882
195 -3.7746388946067797 7.349555557128199 1.3144438560946443
57 4.109671810325144 7.363677662644204 5.563888937790889
199 2.976215122950497 -0.5286236496229365 -1.8969154169203517
203 -0.7390534223246132 -3.5353051223947567 -1.9960198298435887
207 0.023023521881757797 -4.621944331701202 -3.5217417805487568
65 9.13488793073778 -1.488816558900437 -8.434068100615484
211 -5.956948418729067 2.1236952367620394 2.457240264570241
215 -9.923362189015446 7.415124454877623 -1.1571757240525469
147 -2.6162777146897955 3.2030352306817336 -4.306874305597613
198 -0.20818771936207903 4.070648217066961 -2.498215932847235
9 -5.5901966180583775 -0.7573662157242359 1.0447781144814046
202 0.8375700020365362 -2.7824673772716637 -8.46607886203807
60 0.5241611826107012 3.451386778911053 0.8459687892697081
155 -4.875705103658836 -4.908236902146691 3.8624221625535555
206 0.4654384516003739 -15.104239776076295 -3.878955238970155
210 -1.928553122889433 5.02446510661763 3.5144678200244717
214 -3.838188414140276 8.098200729710726 10.916048110436428
194 4.933029270325306 5.281090473120552 3.087664249498402
