LAMMPS data file via write_data, version 22 Jul 2025, timestep = 1000, units = metal

216 atoms
1 atom types

0 16.293 xlo xhi
0 16.293 ylo yhi
0 16.293 zlo zhi

Masses

1 28.0855

Atoms # atomic

1 1 16.154457843519186 16.13785855601773 0.25892268214715325 -1 -1 0
5 1 1.2762779814932848 1.3775606437065735 1.3864059145979428 0 0 0
3 1 2.613446196069341 16.21458460769722 2.7492381775698775 0 -1 0
13 1 6.53186763328949 1.5245558305670939 1.3508335411449797 0 0 0
12 1 7.970797047427635 2.767635163205236 16.161689182929962 0 0 -1
17 1 10.816602810660788 16.20822972544338 0.01159304707178374 0 -1 0
21 1 12.0110142305192 1.1349370259670197 1.5256198470364237 0 0 0
4 1 2.581881636651327 2.5645994760907547 0.046789872636581305 0 0 0
8 1 4.104357159827576 4.1357938675145345 1.074798489531076 0 0 0
35 1 8.144315706635695 5.374955772475844 2.647602003461941 0 0 0
16 1 9.470570113858683 4.000478124595695 1.2134451884085076 0 0 0
24 1 14.931123141766708 3.7382307430539474 1.3294527336201651 0 0 0
29 1 1.5469572489417664 6.633229141033023 1.275896629576246 0 0 0
33 1 5.6642376206589935 5.401969610350263 16.25457707262254 0 0 -1
37 1 6.854301858154454 6.821731505373862 1.3925534215278708 0 0 0
45 1 12.218896920895437 6.340263396234415 1.674637378096786 0 0 0
43 1 13.833411627756147 5.173295499469615 2.870778740323379 0 0 0
32 1 4.3550111295434615 9.673634236605793 1.3565557983563614 0 0 0
34 1 5.421600167320725 8.14509522462178 2.8560395203847126 0 0 0
36 1 8.24387394248288 8.068733478368655 16.24454546229926 0 0 -1
40 1 9.794932624747265 9.52606926436177 1.1870216521144092 0 0 0
67 1 13.85586482362114 10.782061757740959 2.4684962007204687 0 0 0
48 1 15.218453848111944 9.443356552801928 1.2248141078153916 0 0 0
26 1 0.24414436484730279 8.110128387115667 2.5854743721951383 0 0 0
53 1 1.726366304503774 12.247332033614041 1.3175885151454139 0 0 0
51 1 2.903858663561103 10.743406076630048 2.7458866340905392 0 0 0
61 1 7.089863398861233 12.091589469080589 1.0833364076908227 0 0 0
69 1 12.310524655833335 12.17970875960376 1.3647854277449845 0 0 0
50 1 0.15845143039148626 13.300531836590249 2.8463065649769157 0 0 0
56 1 4.154838925830965 14.932547791292706 1.3600408826141415 0 0 0
58 1 5.673750870169258 13.499182312327259 2.3588052684386405 0 0 0
64 1 9.611502307509756 15.042857530527058 1.4998083487594656 0 0 0
66 1 10.784937886156259 13.325433254327395 2.711059724219324 0 0 0
68 1 13.724749599398457 13.446840148905801 0.14841200166516694 0 0 0
72 1 15.056425167564747 14.633677946883834 1.5123315567358995 0 0 0
7 1 4.056902903205262 1.4367788113319693 3.806793814928683 0 0 0
15 1 9.100976722951248 1.2899852757026642 3.8353458318171327 0 0 0
89 1 10.881804103027017 0.305276959762158 5.0337675286773464 0 0 0
23 1 14.949940763094034 1.071045447905843 4.145969069266853 0 0 0
6 1 0.9570240359294043 4.152218169710949 4.062250115370505 0 0 0
10 1 5.320027661971932 2.978120519288178 2.6945318378397984 0 0 0
105 1 5.090632434136821 5.563179272088966 5.371783031113208 0 0 0
14 1 6.69725013916261 4.327303045478237 4.115324366429397 0 0 0
18 1 10.738152508049634 2.6804976093196307 2.631214293913586 0 0 0
22 1 11.951937189644832 4.1431551554258865 3.947684906843534 0 0 0
113 1 10.91925345931059 5.755556316472847 5.334267580174598 0 0 0
2 1 16.213584022188208 2.5652226533739597 2.877875958262369 -1 0 0
27 1 2.7703904195961893 5.150661739890635 2.7561783268745055 0 0 0
97 1 16.047551806739207 5.120857586851189 5.711032409976155 -1 0 0
31 1 3.7932905445774967 6.875406369975202 3.951455724517509 0 0 0
39 1 9.572515316895771 7.0446640350807535 3.929014274506206 0 0 0
42 1 11.095003904448534 8.200343618915559 2.677149520845139 0 0 0
47 1 15.153881212110857 6.648965601680681 4.0817447105613684 0 0 0
30 1 1.3652158697383578 9.62333472832389 4.170406099766012 0 0 0
100 1 2.610496330789485 8.108443850036261 5.564382025257604 0 0 0
121 1 16.263505377977854 11.012637680678045 5.462323412708635 -1 0 0
38 1 6.888449733225699 9.399688049551338 4.055049013212773 0 0 0
59 1 8.325681986198191 10.702182651926002 2.589493442433766 0 0 0
46 1 12.69584970977223 9.304286032994757 3.927632012829446 0 0 0
116 1 13.801883418314064 7.989039889749985 5.579197966064908 0 0 0
124 1 2.6798808543420662 13.492410659867133 5.174735282646824 0 0 0
55 1 4.2773297868830005 12.377362909051687 3.849343169085189 0 0 0
63 1 9.4615183445834 12.108291734017147 4.239882253452152 0 0 0
71 1 14.844195057863113 12.069108913353876 4.0546639401727615 0 0 0
140 1 13.59609219709069 13.532195267713186 5.448332978269796 0 0 0
54 1 1.183856831426804 15.046702420619047 4.209570797002987 0 0 0
73 1 16.15556221794763 0.038140524370995216 5.883834144757626 -1 0 0
11 1 7.824809736840184 16.242362451724077 2.450910331551589 0 -1 0
62 1 6.941136987045632 14.87098380087662 4.086835656236578 0 0 0
70 1 12.045646987973482 14.77291587734709 4.114115562025873 0 0 0
19 1 13.52816717304435 16.031130761998018 2.7112830157645056 0 -1 0
77 1 1.4207069323170018 1.45022883986544 6.915013166880534 0 0 0
76 1 2.4632166816252314 2.7488505062190596 5.2008716807917255 0 0 0
85 1 6.462521754867463 1.724130539473569 6.461070209574771 0 0 0
84 1 8.074543234826987 2.9010510187611804 5.359415205069534 0 0 0
93 1 12.195401051128712 1.2855940353152748 6.627819511047964 0 0 0
92 1 13.429589455568173 2.6497774819538407 5.091006392433673 0 0 0
74 1 15.986776888377852 2.5181644005581547 8.173676605032053 -1 0 0
80 1 3.5303058293344645 4.230567928753572 6.646416950524355 0 0 0
88 1 9.370924135563929 4.287588301159731 6.530607744892725 0 0 0
107 1 7.903436724616342 5.722478271265481 7.849995485043597 0 0 0
96 1 14.276886308409244 4.047560005704266 6.791625497167718 0 0 0
101 1 0.9725759864392123 6.793056920383347 6.88518567200865 0 0 0
109 1 6.574493782777287 7.036518157537352 6.427746766239721 0 0 0
108 1 8.264636055161386 8.216465023263527 5.41130947553582 0 0 0
114 1 10.658581212136507 8.36024545883042 8.309155165346946 0 0 0
117 1 12.182503944327689 6.932416939529805 7.017186843021542 0 0 0
115 1 13.406478704976243 5.5631572208861835 8.395312527694808 0 0 0
104 1 4.037795940756441 9.587693454756847 6.698762203420189 0 0 0
129 1 5.506774605216247 10.89375959287197 5.315904487087861 0 0 0
112 1 9.508150087044458 9.674658652437248 6.765601740197281 0 0 0
120 1 15.158981177846028 9.520059162140411 6.8686113552505335 0 0 0
98 1 16.19479500897261 8.04979365150777 8.370647845128376 -1 0 0
125 1 1.476986831251845 12.185950033810172 6.778580068249823 0 0 0
133 1 6.575045275560456 12.232582930158973 6.848943915602035 0 0 0
137 1 11.205163097981572 10.619385648596966 5.3183371543925375 0 0 0
132 1 8.088608973050997 13.609622999136983 5.605928637922711 0 0 0
141 1 12.052523630822868 12.310566317631503 6.731626424301432 0 0 0
139 1 13.658614629988115 11.050971646739184 7.999119442311498 0 0 0
81 1 5.357952077785064 16.13552197740544 5.159259913968821 0 -1 0
128 1 3.938155299178983 14.88270305603117 6.6916510092124435 0 0 0
136 1 9.487931297983017 15.412382878301768 6.523600053400281 0 0 0
138 1 10.788966226180618 13.935853817847484 7.989672349494716 0 0 0
144 1 14.910254721538172 14.736515093576013 6.9390492736492915 0 0 0
122 1 0.04988277056274345 13.381929373897025 8.397010438804022 0 0 0
145 1 0.12977343621496504 16.24186141212943 11.071136906724309 0 -1 0
75 1 2.6390323674535026 16.201622088090378 8.220682803401257 0 -1 0
79 1 3.968036646233485 1.448268566977222 9.446572719015718 0 0 0
82 1 5.157448051409805 2.8536486673344137 8.066306296267404 0 0 0
87 1 9.404600447654136 1.6300918371706339 9.4214534931032 0 0 0
91 1 13.494110953249209 16.0723979457937 8.149801268297345 0 -1 0
95 1 14.78730582882187 1.1194456638670809 9.613190345614138 0 0 0
78 1 1.0979191644639719 3.91067505031354 9.621829719572192 0 0 0
99 1 2.3394539554080525 5.4555126232795885 8.294602785075146 0 0 0
86 1 6.631694127975006 4.22731009469219 9.251506561404188 0 0 0
90 1 10.825353148468807 2.7667047202632595 7.841068978581753 0 0 0
94 1 12.174370258502764 3.927353320140392 9.453632853218682 0 0 0
169 1 0.02581862765662225 5.4298390298234835 11.041335445651756 0 0 0
103 1 3.9737583892649004 6.609656145148901 9.642720256475704 0 0 0
106 1 5.292119851370276 8.21148001583939 8.118858683943616 0 0 0
111 1 9.382651287853383 6.925796446559093 9.526728260433591 0 0 0
180 1 8.194023414562285 8.34085021988902 10.846010347825874 0 0 0
119 1 14.77582552180725 6.876095039858973 9.90865625332438 0 0 0
102 1 1.405181154872257 9.201140375114475 9.63603601612614 0 0 0
123 1 2.596177450687252 10.577638590475459 8.201733490863793 0 0 0
110 1 6.614838005927559 9.556289870958198 9.42662759895774 0 0 0
131 1 8.078875356883527 10.892439818745599 8.116210748230998 0 0 0
118 1 12.509457878300472 9.409276779811023 9.20146943028923 0 0 0
196 1 2.9209413875053523 13.788671069975724 10.981291327442767 0 0 0
127 1 3.8482387615739118 12.055095353309367 9.613011036386373 0 0 0
204 1 8.225781009287338 13.70422149250218 10.637594404785954 0 0 0
135 1 9.611779893346833 12.393689527236374 9.339730039817459 0 0 0
143 1 14.882063343822196 12.141096962783115 9.745012996068114 0 0 0
193 1 0.14776375430850208 10.879955688090908 10.876659978099896 0 0 0
126 1 1.3345036400403403 14.864388117619388 9.627101146391244 0 0 0
130 1 5.04149566295752 13.358278436642927 8.179475457144154 0 0 0
134 1 6.584188647428952 14.871362903627123 9.198473252834086 0 0 0
83 1 7.9700964984312375 0.25528725005846803 8.073889035434707 0 0 0
142 1 12.133560072369153 14.922954778236432 9.856417758912185 0 0 0
149 1 1.308385902060821 1.4775055879654797 12.44639364499925 0 0 0
147 1 2.7358129315263713 16.222947441080237 13.672596938088194 0 -1 0
157 1 6.6178745852722205 1.6757108912805203 12.152107285263938 0 0 0
156 1 7.862342290429715 3.013597555916985 10.666063359176288 0 0 0
162 1 10.789409759885627 2.628780790833972 13.362548395276553 0 0 0
165 1 12.486817372191412 1.3664946380840617 12.21269375716387 0 0 0
164 1 13.618692474989393 2.772074219543063 10.843825479549242 0 0 0
148 1 2.6559930222102683 2.70277683435271 10.986256179850827 0 0 0
152 1 4.090175543747054 4.1841099273186275 12.182473274347222 0 0 0
177 1 5.593931748092827 5.461786316200463 10.754444067391576 0 0 0
160 1 9.367786149181054 4.076268521693866 12.057623273912684 0 0 0
168 1 14.869447075799421 4.204594301951372 12.24895227268906 0 0 0
187 1 13.663313386777576 5.511846412185698 13.69883185542921 0 0 0
173 1 1.2748885501012497 6.610958359794989 12.657126214077568 0 0 0
181 1 6.797899550894805 6.908171608948924 12.14986128913747 0 0 0
185 1 10.894249384743649 5.405818551838336 10.860951995852176 0 0 0
189 1 12.290117091725753 6.811274241284658 12.371857647538414 0 0 0
170 1 0.06849840778528103 8.291997577508681 13.728969622260724 0 0 0
195 1 2.690337814942564 10.988019668693292 13.553627703061052 0 0 0
172 1 2.5774550649944663 7.827413098913317 11.022993437219112 0 0 0
176 1 4.0603064975131815 9.481266677313025 11.931484731041333 0 0 0
201 1 5.59020364918947 11.033558108947442 10.830794275471296 0 0 0
203 1 8.377289315311424 10.954137021302254 13.739756468181078 0 0 0
184 1 9.671185844750681 9.69710776913397 12.296915910446664 0 0 0
209 1 11.153351860343 10.879282777448745 10.684622823437955 0 0 0
186 1 10.83629270462682 8.139649889729936 13.738251143672898 0 0 0
188 1 13.40486680450217 8.338260282913307 11.161693225521597 0 0 0
192 1 15.058361886953378 9.668601901712332 12.36142171931926 0 0 0
197 1 1.4505819784357548 12.35550914400548 12.175117146249791 0 0 0
205 1 7.022747880194955 12.255267136822143 12.241561021594913 0 0 0
213 1 12.113169698033985 12.104727975884623 12.364092136084084 0 0 0
211 1 13.682347118005945 10.942516919623046 13.8007121165292 0 0 0
212 1 13.552416508549097 13.609322144997016 11.264608920201226 0 0 0
200 1 4.315503628208296 15.143911506305262 12.228946061555238 0 0 0
153 1 5.540100661420733 0.23101974594069208 10.7056108736731 0 0 0
161 1 10.859608476693266 0.2512501128313662 10.823516602573694 0 0 0
208 1 9.297271161360264 15.247561647603426 12.11259602088832 0 0 0
216 1 15.04514293034167 14.888324592269358 12.486810833302986 0 0 0
146 1 15.872037543451803 2.5258837139025174 13.738548057372801 -1 0 0
151 1 3.9156889209256387 1.4118223258796767 14.912362402789494 0 0 0
9 1 5.318753844755048 0.09561327200551832 16.249501040496604 0 0 -1
159 1 9.634598394483772 1.6036115318007589 15.120541328722043 0 0 0
20 1 13.395764829741635 2.5087437750618253 0.1433923506748219 0 0 0
167 1 14.657242124055873 1.016903251593355 15.275156564635417 0 0 0
150 1 1.2735794954570991 3.8120122635008857 14.828990736540007 0 0 0
171 1 2.763852643475977 5.363427389176003 13.881740975366696 0 0 0
154 1 5.29685931580732 2.780618905467859 13.595791893898356 0 0 0
158 1 6.939177168643056 4.184120175268457 14.54006347214504 0 0 0
179 1 8.385871210959534 5.626129973454854 13.488153369797645 0 0 0
166 1 12.285746721968101 3.666180428766035 14.750046655154373 0 0 0
28 1 3.1607291784389067 8.100699473171533 0.17783466173569212 0 0 0
175 1 4.416061695149019 6.7666807038116 14.790647342399735 0 0 0
178 1 5.546776726544493 8.301208434490071 13.445597352990253 0 0 0
183 1 9.842495077746802 6.633223611031831 15.093838726549869 0 0 0
41 1 11.093392993093866 5.099370273439685 16.241915926210787 0 0 -1
25 1 0.11082140695787188 5.145026322946518 0.11128169898569813 0 0 0
191 1 15.154760631228413 6.746406337068583 15.158023612893558 0 0 0
174 1 1.7789239744003347 9.390334977403434 14.948815631737315 0 0 0
57 1 5.481836364445427 10.853207767482012 16.025732963658317 0 0 -1
182 1 6.959416414417606 9.544109291564396 14.881216997824378 0 0 0
65 1 11.119357456786934 10.823373894240511 16.12626053411255 0 0 -1
44 1 13.734570929347681 7.879205300045205 0.37215477436491046 0 0 0
190 1 12.594452814934186 9.324181420886957 15.132443341258808 0 0 0
49 1 0.5986470625773207 10.676386199538252 0.054312871042832625 0 0 0
199 1 4.17338381675392 12.26724814939728 14.697512322296728 0 0 0
202 1 5.5461440116712275 13.641454629852463 13.356207552837304 0 0 0
60 1 8.275330696800058 13.830174396923606 16.247201671449314 0 0 -1
207 1 9.809935145198512 12.53201805051928 14.979374976994036 0 0 0
210 1 10.773221120786706 13.767831273053963 13.360522993205034 0 0 0
215 1 15.267018526216189 12.099093478039997 15.292045176130744 0 0 0
194 1 0.03620234981394077 13.315597703372575 13.735247060296201 0 0 0
198 1 1.1797160789376369 14.932325913923426 14.930132624895188 0 0 0
52 1 2.8362840380078125 13.616754350310847 16.183706106806603 0 0 -1
155 1 8.109336412100452 0.3929358796472263 13.600891478873146 0 0 0
206 1 6.873795001411023 15.08880816072085 14.902390859224207 0 0 0
214 1 12.112366416290724 14.747366863732541 15.012067479866035 0 0 0
163 1 13.5212117674681 16.175739856021714 13.70955901189348 0 -1 0

Velocities

1 -5.835908781349008 2.827531711604361 -1.5351432202283823
5 -6.362091170069461 0.344495115987807 -5.933981168157858
3 -6.459959358981018 -4.577627954190817 2.7512693877094763
13 9.214556134060636 2.3614899364717634 -0.47701038217529934
12 0.06848694625687551 10.763306216082594 -3.342520259522532
17 9.664434524493428 1.989000253108396 -2.694513979994751
21 -5.434839558688861 0.990867300265754 -0.23046136042183316
4 5.5265889179951575 -3.231036639226036 -4.858871819181167
8 5.2498057090497445 7.104760863690801 -8.492550109725606
35 9.172432247173585 0.42602151922910103 4.324637758095814
16 2.7295718015453763 2.544795352958662 -4.944811479806545
24 -7.007882187444388 -4.894281022796676 -3.8153515489309453
29 7.966045800465202 1.2169394857766356 -7.085583036048047
33 -2.8167074543420147 2.6691291886285544 -1.6137621894803629
37 0.3750734985421394 -1.549210484020681 -0.6458174274297876
45 -5.6987285903172475 0.4288062126509257 5.95531668572289
43 4.100860084037305 -2.432815614790654 -0.5031516466091381
32 -3.0746614269253913 -0.6942945191477025 6.896000802026719
34 -4.473023841139637 -3.384606606931911 6.528464130452588
36 2.1617268516691857 0.8217974306867295 -0.7788981078004298
40 -2.852760037065825 -4.132608390059826 -0.6969361952427096
67 6.209658454986049 2.433198798726189 -2.200084579952631
48 -2.3666862927211003 -2.1119051249459577 -1.2041571978995522
26 4.509517011329223 5.537401869712002 2.3137879209005208
53 -1.779731271233906 -1.866609520462259 2.890110840694452
51 -0.8205113606698962 1.9534868980713846 -4.603057635925539
61 9.281112491762139 1.9880059617110806 -6.838506545916979
69 1.3149819221863792 2.8707976472378327 -3.3586471450295527
50 -4.262676730758755 1.6355434363298922 1.3408299275853923
56 -1.0191092845711744 -2.3772513506173265 -0.8882219241770242
58 -0.051545684177687456 -0.3038419530597185 6.248901767524524
64 0.2409809585646 0.9570322089463661 -1.7419779314770047
66 1.9794111505441314 1.4509790531089979 5.442231975606127
68 -4.099179413325776 -0.4475904951299944 -13.108392923257918
72 -1.6364304177077238 1.7881079180402586 -0.4633618047538643
7 5.764765651553986 3.721604599208265 3.119802222392549
15 -2.14588545179323 1.8322295141799008 -2.3622762670386743
89 -7.118330313988037 -4.4048603960652235 -0.36560626865395657
23 3.136680586126694 2.9884937611509694 4.518846861337904
6 -2.1762550172380566 -0.6415844370200037 -0.5461786753247901
10 6.331381882431128 -0.42271769484909044 2.7247630138079915
105 -0.7462723213336858 10.45336632012883 3.6341025722949327
14 0.6524101598609897 2.6689225447803184 0.7554457863707402
18 0.2663851942790342 0.6682919955015021 -0.07318357176708795
22 -3.0957531423400897 9.036606816929044 -1.0866995482068407
113 -3.4220678077274114 1.5686707513312361 -1.304592897396263
2 -5.360720236825718 -3.3594187699697367 1.6308472790589386
27 0.826436957959731 -14.091412482851233 -5.013932810104282
97 -1.4658277183540536 -2.926867947753389 3.47339976250076
31 4.540165141148111 1.6833237984776372 -3.344736689145906
39 1.8985610890049034 4.455459701964506 -1.3629258552130306
42 -0.8527289647891492 2.9877876373549794 -2.0785216942123994
47 -2.3127210999664585 3.6893290121313966 2.113769571904947
30 -1.1577724438571377 2.483330561612491 -1.9968750777246758
100 -5.898774053479897 -1.5937286800481012 9.578853882600958
121 -1.878115897080813 4.605554340554613 8.998730213677453
38 -0.8836829134205961 -1.4805021553941988 4.225594437734621
59 3.973076686336926 -7.0645136661710906 -0.15736324151872438
46 1.3444343628175783 -5.9795264749957155 0.17082017949964284
116 4.996290147467953 -1.3466080535027432 -1.2234751830448556
124 0.3504143632949283 6.001809786158882 1.6674384870197159
55 -6.6160376513601395 -3.577979917732154 -3.4111342226770796
63 -0.5602048231112853 0.9785447854972595 8.23377196425537
71 7.669094090861723 -0.11716982672366083 8.025772233302234
140 -5.772408552281952 -4.429719594208269 -4.456942129955979
54 2.4085013916241547 -7.889469366464303 8.012360149717074
73 0.4521479485948995 -1.0435295109175997 -2.6349254732566947
11 1.819571587859051 -0.8177029003486657 0.8549781206790378
62 2.264947760114145 -2.4273644433893344 -5.154167614248178
70 0.7849232245159643 5.22408140045878 4.025778370939518
19 1.96700521286101 1.9157075540810498 -1.4920548306992394
77 -0.19634358476924751 0.3232071846724226 -3.443869076584457
76 -0.9501534696810807 -3.0426869452254164 0.01442290789801532
85 1.4577141215439982 -2.518303128546574 -0.4049881311456018
84 -4.9805423887030456 -3.54446597087028 4.685148039277765
93 -4.575380129686913 -3.34853244988024 0.18704807528708456
92 -2.6124795598546933 -11.638172441364366 -5.147546002769416
74 -2.9801655268305995 -2.4577139791188762 8.206226828293554
80 4.077161188204287 0.27788137063967594 -0.9895088782113253
88 -3.294986420536033 -0.018211498814231092 2.7348164112137314
107 -0.005026676114464307 2.4372290678284894 -1.0188877532262903
96 -4.908243535603525 -5.4663087896463916 -4.275073251875474
101 -12.716665787097257 0.6794076883286089 -3.5015533178263007
109 5.785281732397688 8.694511260471044 2.484577078425235
108 -2.854936041443608 0.012010768939413994 -3.637700050976188
114 0.6395352202270241 -8.379928107127233 2.82189795917734
117 1.4181127601996375 1.4430354090878872 -2.471312309928734
115 -2.020935180167056 -2.400265929083995 -2.9491527904140304
104 0.7854732123237048 -0.023588713116204123 -6.790950556304849
129 -2.254070555677285 1.0800505591919336 2.6013900983756213
112 4.289948020743343 1.339426220985991 2.2218830557593705
120 6.00143628551179 4.209543145943094 0.17834953352700164
98 6.3938190913146995 -1.474463980179504 0.19223122984957122
125 2.886889604531235 2.236130826901703 3.8626914625031774
133 -0.32912547546474985 -3.489089201709325 -4.296939224043831
137 -4.489471582981343 9.881313673621612 1.7083916548800526
132 -7.264733951913207 7.957618374576111 2.8165572851522542
141 4.22913373061805 0.27761387903664125 3.9912522991229826
139 -1.7350904994285474 3.209170783396318 -0.5737390804292379
81 -3.978940910579218 1.9671777293749013 2.144849755562695
128 -0.19934298498795608 9.482884921503814 -0.2495494643705138
136 3.3929753757096197 -0.7304132810422246 0.07869660778733442
138 4.331599029608055 1.503882463138417 0.5521947035118251
144 9.180033456354906 2.694767109966387 -2.1611230303065305
122 3.2054290000383356 -1.9471872946620161 3.452666445978093
145 2.0565818041961634 1.4422541567756655 0.5615604710194992
75 -0.703773988934788 -8.039564455585452 -2.7699308966617417
79 7.893803367125674 0.5840559458191212 -4.374272263068546
82 -3.8045176075434863 5.897174994754994 -4.347169870448297
87 2.3838344542990426 -3.9190846371757435 -5.382364225656303
91 -2.144961799337404 -1.1452603116045492 -1.6720715878807269
95 0.1462398088420701 -6.961743011926867 -1.7798735189977934
78 -1.0046571600783514 1.0724410888272173 -2.153104155433431
99 -3.8982273997859465 -5.093981425075004 -1.1882991893712889
86 4.78337241783144 -2.8778040835177428 -4.501167411997508
90 1.1858371097928926 -0.4528173547657427 5.273675816128258
94 -2.51513133538321 8.136251238018795 6.437837971528747
169 -5.202487443219382 7.094054757554878 3.7020322677925064
103 -5.3590757395824085 4.722754836129317 12.204845617279142
106 -3.0783830437864976 -1.9131800710891507 -2.999393847377098
111 -4.084958435738792 -1.8294575113470772 2.607361933081924
180 -3.4785635581082897 -1.49747404138741 -3.216394350648728
119 -7.051409925669267 -0.7676354649629474 -2.8277931226603723
102 -1.9197082764914604 -0.4707830485203199 -2.4221837128407775
123 -3.5628557633880256 1.2311492175946002 4.349077352923436
110 1.4541167100015202 4.289015641660962 3.6249615543753864
131 -1.2106550104397527 -4.555539032339556 -4.017304054962446
118 -0.5760377497056981 -6.194166837348357 2.4147129715236586
196 6.313843289768294 1.5302011692187651 -0.9557285307863117
127 -4.2453617423052545 -0.5640122032556799 1.1087608317376683
204 -3.947768676185757 -0.5345141103867057 -0.821756195599689
135 2.9908867172606852 -0.7828734936681592 -3.6223201519494834
143 -6.073076194291084 -2.341127723541111 6.604166455615512
193 1.0656689965930024 6.332449642148435 -5.61703937255067
126 -1.8919428720155238 -7.91773212596684 3.581638224447444
130 0.9797671310064612 1.6702800139766911 -3.1595112338309783
134 4.208567861239813 -1.5380048359694274 3.2314891093065654
83 -2.7650327675588935 4.11572497590669 -2.9715161859337806
142 -2.2786200662919187 -1.238118978972952 9.46946163335079
149 -6.100024618542372 -5.908064379515953 -2.442818239212689
147 -3.7088749071999465 2.1128721130341774 -2.8201782804933777
157 -1.3383640399743195 5.839035505189638 -6.66555785611542
156 -5.8553173074869 4.120876947676863 -5.572445003935761
162 2.3297323121271334 0.6823067146090429 -1.4063382480527056
165 0.453552867538958 4.221707222046935 1.6210814841320063
164 1.6755938687587655 2.9985264333419286 2.7204762342623323
148 0.848814786057014 -6.6763466703861765 -2.5216828719577213
152 -0.49505531710528156 0.5197611966444067 -5.042137993084368
177 5.622085544905516 2.6274584609726657 -0.35461487591778673
160 0.619135288502989 -3.4531996781948453 -11.678773599718335
168 2.269079687691605 -6.128357396868209 5.267271562419714
187 -1.991076465529241 -2.2947831970447674 5.316531031795168
173 -4.812714868584957 10.315440291445613 2.0524323667058986
181 -1.198337077393781 -3.098310465701544 3.483855940740816
185 2.1168987597759212 1.188008460802203 -0.46657323881623286
189 -4.753697943122811 -2.143710110511295 0.6243277365931832
170 -4.002056879089232 -2.3302808518890745 -9.34359632122654
195 -1.2825622039921518 -4.209176655994439 1.6731387788624592
172 0.16730571003841535 10.258943386572389 -2.6998973930974848
176 3.2344501637955356 -0.13772256902477875 3.3737801745402116
201 1.9897546863103588 1.317237335700075 3.899825033969488
203 2.614216301963802 10.605673559026348 -10.157767033270558
184 1.452404179606738 -0.9235128569477072 -0.7327674065394458
209 3.5502811372806478 3.9577774076231833 7.220864778329125
186 -6.660232240955006 2.585025142375295 -5.586770763355147
188 -0.6093000162038942 -5.356563327240383 0.6171114115358961
192 5.369840448667755 -0.8077721152004331 6.541347322505672
197 1.3020797728909301 0.039717089237046366 -8.33787057157056
205 -0.42535545652179296 1.8629098721694823 -4.179520896815852
213 -1.0429589321769694 1.5720602497090137 2.243091839990489
211 -5.433922839563118 3.80773019338596 -0.4534657394278516
212 3.2806196321771606 -1.2269678772132482 3.40190151096929
200 2.556252911394467 -4.428106024109779 3.9640737888434945
153 2.4420796389637096 0.6420806270076103 -0.6863628817879123
161 -4.115570208638268 0.3711225449466583 -4.131625679573182
208 0.4849980445785704 6.662288242055043 -2.0175705303548175
216 5.198392479906725 -3.937129392618206 -4.277989187555744
146 4.049347714432811 -0.15379269693933104 0.49982467573473777
151 1.1622189794649227 -1.441584926186421 -5.567860920664483
9 2.3956923665160494 5.43658248911016 6.7198703871764085
159 2.4997997024060434 -2.1222264758633105 3.4714545695656893
20 0.34357511556111753 -4.8068848945992 -0.516722412950106
167 -3.378867748603699 -2.2821425358965217 0.3737814271230891
150 -3.635119204043617 0.04242767235436733 7.424163263522016
171 -0.6871433868253407 -9.417524675288597 2.6665981740002693
154 -9.180468525224365 -4.909394969986291 -2.4526736829431917
158 3.9697502390722192 -5.406908271754159 2.0254652579376593
179 -0.7395833983339439 3.2077166475982524 -0.4425353561868169
166 3.1048002194246638 3.4368466406808933 2.807736322721186
28 0.6977276897894076 -2.7120192324177306 1.5272668313053346
175 2.5009539621421006 4.34295232812704 0.8623481522153758
178 1.5933536445549443 3.6378493372130607 2.1577315146107314
183 -1.3785766283373364 -7.995154108101489 0.6760153434362953
41 5.068701836265221 -8.789876844978414 0.6354400217723751
25 -3.972428663235168 -4.234955575928162 6.449515085660978
191 6.881256459549509 -0.7573450388618487 0.7111006650694597
174 2.4078160960879207 -6.4264683282411275 2.6244104267062576
57 -1.9690417666821962 -3.61969264886424 -10.16163745242258
182 5.531056876426241 -3.916057474224734 -2.8741204839784666
65 5.48144416446989 -7.891191892484593 -0.28102653252121
44 2.4458777189129517 -3.643623878154637 1.2713302833160522
190 -3.7898553689787366 1.5296579965774335 -1.325701878284239
49 3.937519006096797 -6.543283303320335 -3.043611121880672
199 2.970012018629336 1.2102986186888445 -3.2886527445385205
202 7.670308741803053 -2.4604901745362877 0.6551960457670585
60 -0.45805382088512225 4.506682370981346 2.97011935414083
207 -0.13387768035231057 2.5817365728520136 0.8444191197809514
210 -5.060021404240557 3.4024651826704293 2.6416599912876286
215 -1.6853816620016155 -2.2229496687092656 5.113271474295479
194 5.374507957061712 5.009544018648257 -0.1749846551806723
198 -5.452332705580301 2.58399001576319 4.821889680929268
52 3.8460808226082994 0.4649175417951449 5.043913751842293
155 -0.4171165893342145 -2.606034105082523 0.9354942106308396
206 4.190271730743702 -4.64803754553915 -3.8553794977159437
214 1.5964524461367746 5.3543110408917824 -2.7341286691290376
163 -7.622471209210043 3.8523884509551873 0.6131835128277552
