LAMMPS data file via write_data, version 22 Jul 2025, timestep = 1000, units = metal

216 atoms
1 atom types

0 16.293 xlo xhi
0 16.293 ylo yhi
0 16.293 zlo zhi

Masses

1 28.086

Atoms # atomic

3 1 2.67877501705 16.18444705309244 2.6453012931071718 0 -1 0
5 1 1.3835756413604556 1.2090216950644526 1.2835544955346845 0 0 0
10 1 5.360902128290564 2.615222351099132 2.597677052703196 0 0 0
13 1 6.920140516101025 1.3629028832103904 1.3336227935435028 0 0 0
18 1 10.910809110377715 2.7398456200533436 2.73365811113867 0 0 0
21 1 12.223773690861606 1.3233450681675356 1.353451312959008 0 0 0
1 1 0.0735336659243302 16.09822043037236 16.20355181042262 0 -1 -1
2 1 0.08688243987242572 2.6293324998896908 2.8320204604847583 0 0 0
19 1 13.528130765129285 16.217894148145042 2.7282245524082254 0 -1 0
27 1 2.674750411131322 5.552383910156288 2.780943439155143 0 0 0
8 1 4.02905860053184 4.126307195116759 1.3873990880715916 0 0 0
16 1 9.39750997303677 3.911008793639037 1.3690670182684952 0 0 0
35 1 8.069688365439472 5.442614126929055 2.5488001386877843 0 0 0
25 1 0.05502182191533933 5.272166359038109 16.22751762788911 0 0 -1
24 1 15.038264622054822 4.017706108557034 1.5644351625982102 0 0 0
43 1 13.491069248682427 5.38961701712597 2.7674437294641447 0 0 0
26 1 16.259825217356596 7.97925116991495 2.9060352941221232 -1 0 0
28 1 2.6963871453100228 8.090221911820413 0.0008296850669690407 0 0 0
29 1 1.2731312584137207 6.722472991154215 1.301327411334713 0 0 0
32 1 4.115933648580196 9.551323726009583 1.3208063242369659 0 0 0
34 1 5.507293670843122 8.321110819015534 2.6764395083367827 0 0 0
37 1 6.957795583296472 7.051246285729744 1.3052499350809685 0 0 0
40 1 9.622757668113447 9.726421500202806 1.485309165449875 0 0 0
42 1 10.764628151621094 8.089182871346608 2.8499090526761552 0 0 0
45 1 12.061054021779773 6.76789516957688 1.3594069685461225 0 0 0
44 1 13.57080002260077 8.08300555156873 0.013427782972563319 0 0 0
48 1 14.916816725342226 9.373871544431468 1.5157106577997796 0 0 0
51 1 2.905344497561524 10.88669505028944 2.797362595626597 0 0 0
53 1 1.4838786441621115 12.12461881530327 1.4960003636865644 0 0 0
57 1 5.492766503311683 10.988164029153523 16.282974845357014 0 0 -1
59 1 8.163683592033273 10.966025248636802 2.8592374870790556 0 0 0
61 1 6.936786723199793 12.346464250335162 1.368900042347561 0 0 0
65 1 10.839552615821427 10.870361730081616 16.18287704375965 0 0 -1
69 1 12.163407584542156 12.112791856107771 1.481722593454279 0 0 0
67 1 13.51309910553435 10.81525721251845 2.8163203120129103 0 0 0
50 1 0.0327939088340709 13.48969195813426 2.718701333610239 0 0 0
52 1 2.7103754171095993 13.462323302552468 0.031164225532435964 0 0 0
56 1 4.204447958074804 14.956279079395278 1.3516939476800511 0 0 0
58 1 5.535280701050421 13.614317071100372 2.800925396115666 0 0 0
11 1 8.169113257176452 16.213368365146305 2.699940446702994 0 -1 0
60 1 8.279856939433934 13.571748312034625 16.15796878218278 0 0 -1
64 1 9.632367935235257 14.99765473383372 1.2716618000882487 0 0 0
66 1 10.885897096178386 13.656628155937906 2.716316232493565 0 0 0
68 1 13.653175166916991 13.517840080023031 0.09055776830417935 0 0 0
72 1 15.067346081686283 14.856638967981214 1.3934595233549796 0 0 0
73 1 16.288296477725712 16.149418913371974 5.616265777656005 -1 -1 0
76 1 2.751371114135561 2.7077307211634016 5.37923267617458 0 0 0
7 1 4.059708053697125 1.2963304850292319 3.9998044340581456 0 0 0
81 1 5.422633794591086 0.01677508648885595 5.478068149450252 0 0 0
15 1 9.58428163107531 1.3846158914249684 4.023696941796661 0 0 0
84 1 8.012532035690183 2.704564210981645 5.251264286635191 0 0 0
23 1 14.943091901139113 1.2613959544670346 4.176708121049418 0 0 0
92 1 13.505383041669287 2.704471156636532 5.47494176501318 0 0 0
6 1 1.4012812816335105 4.045695109921915 4.151188257247478 0 0 0
97 1 0.008987438343454366 5.503009829059846 5.431144911657851 0 0 0
105 1 5.359709059509115 5.503964060398636 5.209552748680845 0 0 0
14 1 6.701073375699102 4.022144128730406 3.8478344502261415 0 0 0
22 1 12.167612981299031 4.0513068623683095 4.084630511255484 0 0 0
113 1 10.790489432613233 5.3006182072831365 5.45303330019712 0 0 0
30 1 1.4848980853385498 9.553833731507918 4.064596713334207 0 0 0
100 1 2.884219090731954 8.221992569973509 5.39375668367019 0 0 0
31 1 4.077728176415849 6.9279414136696795 3.850054074338209 0 0 0
38 1 6.752442437916591 9.612019263263965 4.215136045437523 0 0 0
39 1 9.403665045366361 6.683600674911676 4.188170698226511 0 0 0
108 1 8.147139173553525 8.149619318463321 5.438194447779873 0 0 0
46 1 12.1713383771194 9.338462956700473 4.192768199152737 0 0 0
47 1 14.872019896845561 6.724099354039579 4.173156948985803 0 0 0
116 1 13.543844760169742 8.084012549931114 5.546209049782901 0 0 0
121 1 16.224950292454903 10.696358696848952 5.546808824687345 -1 0 0
55 1 4.0825197440298195 12.33215209006345 4.101675582638754 0 0 0
129 1 5.4190230936486845 11.03949527204438 5.459615918449556 0 0 0
63 1 9.55172130638224 12.347261047110178 4.190136541880471 0 0 0
137 1 10.897291713010707 10.82461168238995 5.443895539773121 0 0 0
71 1 15.049421954889539 12.095249669223026 4.068059392598217 0 0 0
54 1 1.289242349032382 14.883021850932877 4.1388212491699905 0 0 0
124 1 2.680590768180278 13.648577920478466 5.48082024795683 0 0 0
62 1 6.804042395549085 15.000932282105913 4.078930575134344 0 0 0
132 1 8.090557070051835 13.584240959092606 5.468579795869501 0 0 0
89 1 10.855132459345393 0.078683099986673 5.464952803127324 0 0 0
70 1 12.136222960964377 14.862145553159944 4.183970557520536 0 0 0
140 1 13.578443763990375 13.360115497141738 5.365774400357935 0 0 0
75 1 2.596404164196718 0.1427353371962136 8.177350056390223 0 0 0
77 1 1.305059407161336 1.4563992776972325 6.716836897203611 0 0 0
79 1 4.058437483577088 1.3862507535662805 9.501089888534112 0 0 0
82 1 5.353486643515218 2.800553903986534 8.083728321270108 0 0 0
85 1 6.730499043141956 1.41513530789769 6.746838654848103 0 0 0
87 1 9.428268208767248 1.2481804951522917 9.530863492234941 0 0 0
90 1 10.616127964536435 2.770108729270343 8.160931163695144 0 0 0
93 1 12.071877197628995 1.4538665614501431 6.865535823575309 0 0 0
74 1 16.150094291936593 2.739890778324121 8.121811297809478 -1 0 0
91 1 13.340940010971908 16.1163033699472 7.967428049141238 0 -1 0
95 1 14.715942079223858 1.3456548350053765 9.428527724446381 0 0 0
78 1 1.4124650249895574 4.042593273571513 9.61158067706762 0 0 0
99 1 2.730554646439395 5.369055162474839 8.148789725120857 0 0 0
80 1 4.072842397993393 4.138833684367955 6.651461878709575 0 0 0
86 1 6.716695644387464 4.2100201228003336 9.388137413883024 0 0 0
88 1 9.281418796770181 4.081337785677153 6.739988258813602 0 0 0
107 1 8.036417866769137 5.462253421847718 7.978844039935532 0 0 0
94 1 12.128596628428461 4.032858153601464 9.462281927850965 0 0 0
96 1 14.816162296503496 4.216863248337423 6.72785255325834 0 0 0
115 1 13.396952888663478 5.471988830792675 8.235623280021692 0 0 0
98 1 16.279232976591295 8.062590834975248 8.215225253172441 -1 0 0
101 1 1.4295928635156345 6.83035737247245 6.760341270495917 0 0 0
102 1 1.372299725198675 9.421522665334285 9.559985408371459 0 0 0
103 1 4.120384918036587 6.791161808043405 9.333753261684583 0 0 0
104 1 4.189098840913691 9.595867062249194 6.764748457718684 0 0 0
106 1 5.679349769458423 8.30615763942841 8.129770440657575 0 0 0
109 1 6.74834550491589 6.785854181152898 6.703963506511963 0 0 0
110 1 7.002658907691219 9.721968311983279 9.486447925448479 0 0 0
111 1 9.324755153633255 6.832781281019849 9.483835227788164 0 0 0
112 1 9.473175339577445 9.529056687613501 6.729914967764112 0 0 0
114 1 10.784597929220102 8.215992422237033 8.185871655188166 0 0 0
117 1 12.026595471654764 6.754391844784854 6.744740310917423 0 0 0
118 1 12.093206174387172 9.479871097913364 9.561468144166746 0 0 0
119 1 14.836671338250248 6.722452035394472 9.493810391162732 0 0 0
120 1 14.796100641154938 9.456841817771299 6.973092608572839 0 0 0
123 1 2.658142632446184 10.846451398906801 8.150056263950543 0 0 0
125 1 1.3028460052444168 12.307371090009447 6.881464559023124 0 0 0
127 1 4.0227986792441595 12.304073572481926 9.488152895987964 0 0 0
131 1 8.331472646222508 10.995874991289138 8.173084751672327 0 0 0
133 1 6.896970338221673 12.33911768735246 6.865303131762158 0 0 0
135 1 9.579531622588068 12.271590794809363 9.61624581308665 0 0 0
141 1 12.261005190099104 12.223992606112787 6.790358340102466 0 0 0
139 1 13.39963757566621 10.905005723253234 8.300276908843086 0 0 0
143 1 14.934392785523544 12.123332726308911 9.669095987831605 0 0 0
122 1 16.22775176930708 13.500912771697813 8.195011360853501 -1 0 0
126 1 1.210076600212024 15.000379628731979 9.382330096352828 0 0 0
128 1 3.9748544594025166 15.084188354119116 6.93440685596516 0 0 0
130 1 5.385984610484288 13.70703383219066 8.109009520048652 0 0 0
83 1 8.087819556293788 0.07542194469183272 8.09685806433988 0 0 0
134 1 6.918180369227653 14.99055527893659 9.494134853861935 0 0 0
136 1 9.369433149758029 15.117361392985519 6.719543096560702 0 0 0
138 1 10.77928332897613 13.574873668785948 8.024893418520723 0 0 0
142 1 12.178458169752531 14.759709632500709 9.421875845587508 0 0 0
144 1 14.782381862713114 14.770274595209848 6.8026441616130535 0 0 0
148 1 2.7327859654944495 2.7370217864194837 10.944256877293464 0 0 0
149 1 1.3861612589996053 1.2646433844019187 12.167356391120995 0 0 0
156 1 8.008422538646354 2.7137988760564067 10.857254354902189 0 0 0
157 1 6.662204444443278 1.3697394633875282 12.317868202037346 0 0 0
161 1 10.909594551174832 16.184033251361242 10.75730406792545 0 -1 0
165 1 12.245750550139519 1.2490219957602986 12.191299282994983 0 0 0
164 1 13.4007618221919 2.733582859844312 10.809925898767913 0 0 0
152 1 4.139711212760204 4.14737281367264 12.209877625010021 0 0 0
177 1 5.3902263577882215 5.579852053637871 10.90328055477836 0 0 0
160 1 9.436179182206036 4.151836379619556 12.205869536033292 0 0 0
185 1 10.84381637329608 5.54905976241617 10.848795247748614 0 0 0
169 1 0.024955093664054573 5.359430935892158 10.922793463544384 0 0 0
168 1 14.909204947190684 4.011380865794295 12.16365698407887 0 0 0
172 1 2.757258550482068 8.099595652860998 10.830279683066932 0 0 0
173 1 1.6152148989565038 6.590678013097474 12.184777707704571 0 0 0
176 1 4.140981781890308 9.513202898653802 12.230621392414221 0 0 0
180 1 8.096081281475128 8.299343282364655 10.836808882063185 0 0 0
181 1 6.816159879357649 6.967147633338926 12.211084393338131 0 0 0
184 1 9.550480671851737 9.481016488016737 12.226774542152862 0 0 0
189 1 12.187429322317044 6.722171993993942 12.284961330491006 0 0 0
188 1 13.422140873862219 8.002041390511739 10.802970153836107 0 0 0
192 1 14.924857105331522 9.34273159372633 12.069741814113033 0 0 0
193 1 0.02030913629998537 10.771164666364076 10.815070896583453 0 0 0
197 1 1.3387601947300096 12.081708235719598 12.18441843147186 0 0 0
201 1 5.42502618220659 10.962248677352834 10.761447060381007 0 0 0
205 1 6.751946607379991 12.187731658674114 12.156279762894878 0 0 0
209 1 10.937104714030678 10.882986343179576 10.946968989565757 0 0 0
213 1 12.367511728093938 12.247343619877883 12.282709022373677 0 0 0
145 1 16.13213445867233 0.043975063387666324 10.713115028726818 -1 0 0
196 1 2.5546135718370455 13.645122264379532 10.817148247999853 0 0 0
153 1 5.370525249205917 0.044612536508957135 10.801206522910979 0 0 0
200 1 4.040267506215911 14.849658190133926 12.15271537468097 0 0 0
204 1 8.152489072295106 13.624002624838289 10.879175376139731 0 0 0
208 1 9.57266378530513 14.82573559277924 12.345397411283074 0 0 0
212 1 13.56405375293704 13.567604631332737 10.807687519773614 0 0 0
216 1 15.059730389620487 14.922574090866735 12.205572682877103 0 0 0
4 1 2.7254630039460084 2.760881269111385 16.183013093771475 0 0 -1
146 1 16.26768923380837 2.550154639705812 13.408824058362537 -1 0 0
147 1 2.7615740301602436 0.032088043865913796 13.567765589837476 0 0 0
9 1 5.5145290986303275 0.00953921477001243 16.26310120524228 0 0 -1
151 1 4.1558131717700775 1.431794688151626 14.914005013366511 0 0 0
154 1 5.422047690543441 2.8711449057043383 13.559160430671929 0 0 0
12 1 8.107287870349744 2.6745921941921966 16.165489827019492 0 0 -1
155 1 8.13030259952884 0.06715307299376462 13.473577385266907 0 0 0
159 1 9.484385183747476 1.3712939725631696 14.811877102175398 0 0 0
162 1 11.023696702994444 2.736305132908596 13.52567126973446 0 0 0
20 1 13.706135428851203 2.6893074754212067 0.10264907953702007 0 0 0
167 1 15.028093090627856 1.3090307530779681 15.029993541291068 0 0 0
150 1 1.2729244193461624 3.937047620024891 14.737578646446469 0 0 0
171 1 2.8828001754875343 5.3039781879526835 13.747146705863349 0 0 0
33 1 5.595471962127223 5.457711272535117 0.19056450964030702 0 0 0
158 1 6.798504696066791 4.121792675409772 14.909164339187114 0 0 0
179 1 8.144613897639388 5.546396271566375 13.659653017539371 0 0 0
41 1 10.71677438567969 5.352261997436097 16.266043132412204 0 0 -1
166 1 12.356350805008205 4.0955929661634904 14.906259207575548 0 0 0
187 1 13.686980727600494 5.4403702387888995 13.564689646635125 0 0 0
174 1 1.277880227409719 9.444768014563062 14.994380647840298 0 0 0
175 1 4.150338613430543 6.675042315583377 15.114156813188407 0 0 0
178 1 5.463134498289505 8.19676167671232 13.68457637817081 0 0 0
36 1 8.263139815187882 8.42409392383431 0.020778240381929436 0 0 0
182 1 6.843583127705189 9.658907066909007 14.962743001785789 0 0 0
183 1 9.540687095890656 7.020095111204275 14.957207914171574 0 0 0
186 1 10.990682930567052 8.27560635381466 13.560654797079726 0 0 0
190 1 12.371461476541189 9.577323152240957 14.928296124523722 0 0 0
170 1 0.1286953191596929 7.965809619821776 13.471077569706493 0 0 0
191 1 15.002682659787716 6.793362021593304 14.923989372537179 0 0 0
195 1 2.7146646406727615 10.781791767078559 13.598564205575524 0 0 0
199 1 4.004968204526558 12.181271175859143 14.915811975651717 0 0 0
203 1 8.138787977022824 10.924230005662947 13.512252110014773 0 0 0
207 1 9.55224352601628 12.241561684571197 14.724629134149906 0 0 0
49 1 0.062339600474480505 10.77699126208643 0.24182067770041016 0 0 0
211 1 13.752376904526514 10.886173425872716 13.547206331700432 0 0 0
215 1 15.04433884271667 12.12161924379758 15.083560376691056 0 0 0
194 1 0.04410100612826211 13.411383051566515 13.515993074630007 0 0 0
198 1 1.4367010250917085 14.816876838296885 14.878303786787347 0 0 0
202 1 5.348716376657137 13.48869408058216 13.49444207648837 0 0 0
206 1 6.765908091137958 14.937004869978484 14.745278377972605 0 0 0
17 1 10.871131082929372 0.09155199314222173 16.18942384181151 0 0 -1
210 1 11.09902423945989 13.626685759812167 13.67090238530593 0 0 0
214 1 12.359774549667105 14.97481426248616 14.993126235498577 0 0 0
163 1 13.707965998868799 16.274326285291494 13.6475559241693 0 -1 0

Velocities

3 -1.6325201853478428 -2.037959551879815 4.580155593361247
5 6.752800616110771 1.2591711184159788 -0.26960144186217627
10 1.3915586320003686 -0.27092710947668586 -2.578968448035598
13 3.6780448554125833 2.7171163143747816 -3.7255271720243255
18 0.7289550075157228 -1.6574190970116327 4.8730526231780065
21 -3.657499193049839 -3.411896146881895 -0.39862741077834757
1 -2.617596838244645 3.1541115545441265 3.8646659249903323
2 -5.365094882030469 3.5027400573774723 0.7349316626619884
19 -2.235632432700579 0.510359533202764 -1.9596166741809993
27 -6.406989432375386 0.818493812007852 -3.277044175495855
8 3.8596328342570048 2.1788298373688866 3.582101087364457
16 -2.1269398431740636 5.449898200592946 2.2673662760765017
35 1.858044925766117 -1.6163739276455478 -4.187941841527054
25 1.4576191876611198 -0.19546074761844534 -0.6874079894072348
24 -4.800365588523225 -1.1365650150529707 1.7911680932472047
43 6.385926875244615 0.76150440061835 0.7307223416390667
26 3.758665062883347 -7.274493821955022 0.18866512279122094
28 1.1159316074358934 3.1405698962569475 2.1819265213636765
29 2.990699307981292 1.2463116080584622 2.826455440389307
32 4.216309679963758 3.337014640983953 1.5285561793207685
34 -1.2175606759422473 -2.3382568854069774 0.20870389442255088
37 -5.591798986952366 -1.0531991218554377 -2.334765390441654
40 -0.3928508978082479 -7.754704281120852 1.7213495150720188
42 1.3223199181865395 -0.904044267924886 1.8081283364755691
45 -5.558329248282528 4.028857609544236 -5.643364857789554
44 0.2291382114436508 5.805775584150094 1.158082777713877
48 -0.5614533969848268 5.173244384566937 0.4603293304673186
51 -1.3315816138912504 0.17832551911234137 3.5426911980425366
53 0.47976568166414973 6.253633257883517 -4.165119179032668
57 4.8005200473087974 -3.4753519955664696 5.1650549413500775
59 3.337390953636174 4.082183121434987 0.6845045653070114
61 -3.6490166646244355 -1.0130984892044679 5.4605564135748255
65 0.3323777665573973 0.29062475406990945 -0.833718780700968
69 7.4042212499239435 0.6332653617388346 -5.629623168221837
67 0.6075771045519868 2.8399204092736614 10.125408567491858
50 5.233678921807751 -3.515193456621316 0.6390226233003312
52 1.992774394049687 -2.0304965167111373 -4.889381158532421
56 -0.6447987662535015 -1.0504110669129776 7.091734431911152
58 0.9993237725991646 -2.7787672798034118 3.136740922282057
11 -6.695859827299145 -0.5806831266553778 -0.7343548591382576
60 -2.3883193718091724 0.8897822916402498 2.647053424205958
64 -3.670851134018612 -1.3139875676346575 1.2531023962604684
66 -1.5463349546614769 -6.098679854222079 2.093285981676525
68 -3.167894624237689 -4.010130064215228 4.476759156962021
72 2.0298148573957806 -0.11731950569189539 4.0056231517274705
73 -1.2540912954190229 0.7912659766053698 4.948391732533776
76 -5.413953312741953 -2.604092716250591 -5.978350680087239
7 1.6089006023289363 2.188505546608037 -0.38191030677317883
81 7.47344240986497 0.5423675068721097 -1.0907582067376311
15 -4.2292070005672295 8.416894361570034 4.918732473465458
84 6.27445878167334 -9.104253100665844 1.8335850120234207
23 1.1470662358957409 -2.2929603138716517 -0.7997621936080116
92 -4.815109320464664 4.6176261139509975 -1.9657632156385298
6 -2.3266577272512143 7.815937510839008 -0.10487141410801032
97 1.7680740969491788 4.909464842252364 0.5011086682488397
105 -1.4229829365798918 2.959494410819769 6.698742036026457
14 1.8749946551592331 -1.389213325932273 -6.795542135140162
22 5.736214723160042 1.0342634539075002 11.875282746762563
113 -3.347683658123685 2.8331998575293547 -4.2256305242712715
30 4.975374563948257 5.892186390115647 1.293264315396066
100 -6.804751694446479 -2.3289918562218324 -3.3999139607645747
31 3.3396245377916824 -0.25009595481566493 -3.672802010211508
38 -2.1974012259063764 -3.233992577056221 -3.4235873424890055
39 2.2046115494361094 -6.954042645086274 -2.698343327348171
108 -2.7694007386859734 6.554323228124568 2.637081735168475
46 0.6058703857098734 2.9885502402945177 4.194873065499751
47 -2.8591720131835077 4.79758018794353 -1.537991938795071
116 0.8072196920974675 -3.2584907146065167 -4.855882719280079
121 -2.9608886286196094 -1.7938680241521254 -0.22111085749643347
55 0.6507519098782943 -1.8713259875414556 -4.879238387080676
129 5.7601770222525355 3.7332990208089494 -0.8965013214959189
63 3.316703322645687 -1.0658946008960983 0.8295907687967082
137 1.2136741380139924 -0.31463088416061946 -3.8905530951334253
71 0.08491252146456116 -3.440302566585597 -0.9566723530698535
54 0.9107612039477967 0.09513785222727605 1.8226901540873035
124 -3.5590725885055665 -0.6006241098439878 -2.2714494818721507
62 -3.0872277355530593 3.258420243221377 2.550882920100678
132 -2.392267643111379 4.055552860907296 0.12365628311499949
89 5.820842234235405 -4.454354614817085 2.1159578464724187
70 -6.420819050761489 9.003462588294715 -0.7312262414814025
140 5.863902939866156 1.8673297903744035 4.391146080728442
75 -0.878680633553132 -0.24908616564937602 5.8404173768387375
77 -3.8881263200126033 -1.7870841636117751 -1.446692097592664
79 1.9002122412866946 -1.7157155378276696 -2.909768858371226
82 -0.3845851343939954 -0.8070860273876228 0.7352537038239575
85 6.689688566260373 3.425427745454999 -4.925416070713897
87 4.347960070794767 4.365628572489359 -1.4322501232392744
90 5.8344348834456445 4.503105398197873 5.4950425217157814
93 1.4582461840297214 3.1288276738234897 0.9704932557407132
74 3.4636022466539047 -0.6000160260444249 2.202309870274344
91 -3.787794533807495 -10.36265128673349 1.1018189833768943
95 -1.658818417774244 -7.241402554745803 8.478493963261684
78 -2.247961664028952 -6.04749570032202 5.155772944400341
99 -0.36915550678556264 1.4498774950916662 5.653974509675372
80 7.5730270009973 -5.940278062523002 -1.7598438357217843
86 0.650521287593795 6.816244755656961 -4.364784332242005
88 -9.316182184408897 -3.0285114596420155 -4.456231053524835
107 -0.5724996113463721 -8.1297732823216 0.11619347622622
94 6.359163143134486 -5.57830184376979 2.3865343332572238
96 0.10953775112271039 -5.618488126429778 0.005772648921216539
115 -3.705748241237225 5.072162590644134 1.068253083316484
98 0.09801347119865694 0.6837785795055353 2.6866763554256154
101 2.7593870820093116 2.6751987866877096 -1.8909418260384487
102 -1.8773673059597336 5.16304378059234 8.8396170406426
103 2.128623583607655 4.288383066688323 3.6114789747707774
104 -4.383732753401938 -0.4654084850597511 2.1030124065915
106 1.5266611594102457 -5.34344696703494 3.0547447601112006
109 -1.4249184266052877 4.218294053364694 4.134409330427833
110 2.445403559008556 0.10277222141013377 -2.8960926223733416
111 3.273158922864815 2.739860235114473 4.468955133034951
112 1.500637034118681 -2.6429050782539063 4.3339886444645135
114 4.80356511881516 0.370154661413037 -1.062454374825125
117 -2.5334108737069596 0.9351702136565863 3.0483196775093035
118 5.686801273204017 -4.735398637947152 1.0692037026202084
119 -2.5648614674526424 3.559148698668296 0.1992906302824431
120 -2.263472049352107 0.23272585624693598 -1.128885115572507
123 0.9829835016007831 -1.7226003098009102 1.439545458732918
125 -1.5996299793444062 3.966064141713995 0.20569767579664155
127 4.583598684011612 0.3731278520593383 -6.28521464154068
131 3.4704402751881234 1.3760745527580684 2.0424755840367337
133 1.5668049752876954 2.2515047435717155 0.9888802911062378
135 0.9045516430992643 1.7908396330793037 -5.780509921719604
141 3.5332672777366696 -6.0000885111858295 7.968643571511072
139 -2.4487749024853125 3.6512086589393684 4.329369618848299
143 -1.970684617911284 -4.379389566630675 -4.147650836572945
122 1.7550218274797298 -3.7091505950816788 1.521450437050009
126 -0.031530855000969665 -1.3604607450301247 -1.3927816299650715
128 -2.2077332039785054 -3.6160725066195836 5.38971780071995
130 -2.701416358361034 -4.440421319518026 -1.5485982173547592
83 0.2582365817638077 -2.0379204729678597 2.572633062147485
134 -2.66897648607862 -11.099981656757484 1.047338469452883
136 5.644596879043583 -7.359082899319136 -1.7295648384346607
138 -1.5597425432719916 2.7208754756037017 5.077182774759157
142 2.8885090732265306 -1.4784889907084562 0.45663754174696963
144 -3.2879904356340153 -0.6656244378204145 -3.3997052021681995
148 3.011200200951486 0.19701505221762397 5.932035328294069
149 6.4999765612898015 0.4655751920639034 0.8232134881761317
156 6.387720562598369 -4.718656712725959 -5.664381110534916
157 -5.170376293815486 1.7809828706208608 -0.33721776734246967
161 1.315967639377138 -4.01846645659661 -3.5493529133722705
165 4.915059327605352 -3.8691600117715916 -0.40643025408471234
164 -1.5886594621309755 5.764588145857375 -6.210830849746703
152 -2.572226965080502 1.8442083477659652 0.9546214168075584
177 5.175992815713071 2.1505879174365443 4.50391259520601
160 -1.44207274672622 2.079760875751356 -0.4966722877153441
185 0.5226601975691517 1.9145819284825056 2.5280069378454737
169 -8.423981766146067 5.568428975621776 -0.3614467903845913
168 -0.5867504191035008 5.222289247314583 1.7005603279400372
172 0.11936654542310204 -4.781823944751111 -6.834327244506252
173 -1.3331731642268916 6.699724372531979 -0.34125070036993643
176 -6.114585535609015 0.64218790530116 -6.736933217813466
180 3.006539521299157 3.1944182833534285 0.48980209927761514
181 -0.3816676949302627 -1.5107640400015618 3.6732919736933907
184 -2.530253232737631 -3.167332380618641 -6.378347447572118
189 -0.30860670625133846 4.222292491552411 -5.2891949955700905
188 -4.440368867393219 3.0467069651084686 -0.4880441285495169
192 -6.742510854707722 3.626532264974986 -6.314066937781395
193 -1.14416218286121 -1.0218486012010635 -4.534908273500504
197 3.0903333947110023 1.499108419501349 -0.530988275517021
201 -3.416972675530172 0.5668506628777469 1.0968692712554524
205 6.8287821544506375 -1.1803627013177356 -6.508447134304313
209 6.665378559927216 -2.788911165706689 0.28550368666387077
213 -1.2883058218203098 -6.619308606551928 -2.335941563625786
145 -0.3298559228825891 -9.617594950125579 -3.453828166247839
196 -7.974099464617467 5.539478419701876 -3.295853818017917
153 3.7351318439255565 8.800350284141423 3.7228180031810587
200 6.1725512397066575 2.656566883855561 -6.238266453668221
204 0.7636077381288222 1.6807726232343014 2.973078016217845
208 -3.60091626153873 -1.3655156272011977 -5.064958332140451
212 -5.224618580762393 -0.463346907668272 -10.717262158212158
216 -1.2387044469188113 7.679710456702291 1.1616902920443262
4 -1.4645441992061763 0.692678788112141 -0.6829806950521542
146 0.9891093814331631 3.2652148964047583 -5.039409174818083
147 -3.2287366873688943 4.920686596453795 7.971754042762061
9 7.281894542180813 -4.323433415104607 -0.04125949481249794
151 -1.1906812456104972 -0.5979470899947845 -0.8325708133924773
154 -0.7871023772349679 -7.05738705536796 -2.6996250380689837
12 -1.061649930287822 7.94009397150451 1.6801977582242034
155 8.60078089476774 2.9973661906900273 -0.2555873576439276
159 -4.3438584349121125 0.6775634356448924 8.59057439074406
162 -8.85466156632293 -0.41525565336014747 -4.565342527835991
20 0.5465906006103111 -2.459340654871949 -1.150873236803283
167 -2.2188976219778542 4.030777259701143 -3.6526270493186024
150 2.3822539151889393 -3.189564568017488 1.7074253532460912
171 0.32918005420530977 0.294868448314474 2.7732879607174388
33 5.791362116965838 0.6796039963444814 -5.88992024111325
158 -3.3360938163529212 0.10381884394149801 4.207512513960461
179 -0.8590552996828706 3.973108071290255 1.7604226941659402
41 4.387126499652859 -8.220433244583022 -1.4833201723135863
166 -6.437976844084356 6.978094683008546 -1.4695723466537
187 7.65012784548816 3.8530240898659276 -3.2732838055497844
174 1.8459329333064123 -0.99346261106873 -5.831430807799957
175 -0.7171281647445844 -4.940470265376491 5.504560597170316
178 1.5566520991499244 -1.2077582815318924 -1.5583453950046489
36 0.3737657200631772 -2.135200362019356 -1.9626047898677517
182 -1.2525857305563524 -1.942744824751353 0.5995136747250238
183 -3.412089040337849 2.005377782543808 -1.5913918661774906
186 -1.2482609476217574 0.15458119699360812 -5.33679502727468
190 -5.0119196615930095 -1.7026707342682084 -5.316513016501433
170 -2.928053569539502 -1.9197943394810535 -2.596411460407147
191 4.192152328195134 2.2683180211443257 -0.4939973039269173
195 4.659968389497516 -3.9535202429133585 -4.564303263174035
199 -10.648504469745642 -1.9695819580775282 9.221222934022478
203 -0.039151658079550844 1.1370042610913373 2.038112568069912
207 2.576041150074093 -1.866791933860674 -5.187508592130686
49 0.09781538216581336 -6.502160927184427 -2.113323573714764
211 -5.151587499958994 7.26504241039994 3.3101950002735503
215 3.336111536117188 -0.9971659460774542 -2.776879571495024
194 0.5405977795158924 -3.66881831563565 -0.24771135975073405
198 -5.527982843611153 -4.114339034823393 -6.8468387970559945
202 -9.31831406697729 -1.4763104269557232 4.508121975990891
206 -6.651151290762705 0.6220799978265565 -4.238554483562427
17 3.5643115048453278 -2.9391405423199366 0.34473855477294
210 -4.819091313846478 -0.5055432798184039 -4.5587919065637
214 -4.007407379081573 -5.771677372090653 -5.21379671941581
163 6.313757087542948 1.5803732719476358 2.785303164681464
