LAMMPS data file via write_data, version 22 Jul 2025, timestep = 120000, units = metal

6144 atoms
1 atom types

-0.2952330421225824 33.0952330421201 xlo xhi
-0.2952330421225824 33.0952330421201 ylo yhi
-1.0889277067690486 99.48892770676882 zlo zhi

Masses

1 26.982

Atoms # atomic

6 1 1.9855246303163985 4.562168028685915 1.1342626275247603 0 0 0
36 1 2.123673440505631 2.2909172327951897 2.4059260642583804 0 0 0
505 1 4.245505725028745 2.372639254695991 0.7396756980611247 1 1 0
542 1 4.365707344217637 4.11383318759488 2.711279276996057 1 0 0
91 1 0.12193439556065545 2.49595013034831 1.0384589137968891 1 0 0
228 1 2.295300027741054 0.2109809617678728 0.5179766243431169 0 1 0
39 1 2.42992169030184 4.176399668523206 5.199428531994947 0 0 0
1036 1 4.863550539795164 2.3303733899790955 5.171484145482826 0 0 0
1014 1 -0.10434403253506652 0.4368963919104929 2.549586465219918 1 1 0
1270 1 0.3301437597724883 2.116007068504651 4.830177151769522 1 1 0
800 1 4.270307306962513 0.48902823327135125 3.0898470123596193 1 0 0
73 1 4.728506072594046 6.091742105951554 4.707696419631525 0 0 0
350 1 0.4159100352360197 4.37967038968627 3.228137363098392 1 0 0
904 1 -0.13003032694607836 6.334573247967462 0.9807847403516464 0 0 0
2 1 4.045089979241526 4.4982790970253665 99.35392532076472 0 0 -1
752 1 0.2950328890625995 5.99311090642271 5.404151291394525 0 1 0
900 1 4.420432361837696 6.175762569593498 1.1962265256129199 0 0 0
329 1 4.833891892843282 0.21795580997631145 99.31643729985392 0 0 -1
359 1 7.063091154485747 4.380318378635868 4.824061061742572 0 0 0
8 1 6.884845359132411 2.7879824628981713 2.707262739324474 0 0 0
290 1 6.4349242797424315 0.39021018255339823 1.269356953807882 0 0 0
44 1 6.667140356576261 4.547859750543491 0.8144012065147916 0 0 0
1003 1 8.839325533235536 4.943861420560821 2.857804049586052 0 1 0
464 1 10.747244633618715 4.479766704601808 1.0913086778725989 0 1 0
236 1 8.403450418742342 2.4533404138860373 0.8464439346791893 0 1 0
238 1 10.701077281431335 2.520077444750147 3.405283381202134 0 1 0
813 1 10.428972023065048 5.273000072259098 4.946744082443581 0 0 0
820 1 6.681490374331742 0.15142386021688678 4.629155950702235 0 0 0
552 1 8.856417931101559 2.1388600021268576 5.046477619659642 0 0 0
493 1 12.818915540745802 4.439975098681222 3.024576863778498 0 1 0
24 1 10.45117303923168 0.3843887107664353 0.8696144375780542 0 0 0
172 1 8.709403067307798 0.03309153553766545 2.716783109074978 0 1 0
280 1 10.48028107308825 -0.2801857286700198 4.603676111332178 0 0 0
490 1 12.696687103564566 2.3659343208395223 0.74950116569957 0 1 0
215 1 12.74845233390205 0.26388233757125423 2.7442877144480136 0 1 0
672 1 14.75361530613809 2.431914616880127 3.009022539651935 0 1 0
732 1 17.03997803555223 4.899075991974704 2.7679878486820955 0 1 0
20 1 14.676294041984102 4.430723242734484 0.8410177243828771 0 0 0
311 1 16.729983443434218 2.2295951182366553 1.007162730613989 0 0 0
749 1 18.754050951660044 2.547609619288906 2.524567874884021 0 1 0
313 1 18.863910908937186 4.145674827785014 0.7102603667887601 0 0 0
817 1 16.761205511605176 2.6036475831989616 4.716209691827499 0 0 0
203 1 18.894003558102547 4.51346698605848 4.795798407895724 0 1 0
766 1 14.84544193817357 4.442393487272297 4.882339017358281 0 1 0
503 1 12.935994076261405 6.579471066888154 4.725188556946132 0 1 0
71 1 19.19375931430039 6.660744164025097 2.592752451284169 0 0 0
791 1 14.837574146632205 6.475818361382936 2.832406037244718 0 0 0
506 1 19.044771019490277 0.3107889472865003 0.4904412031488354 0 1 0
292 1 16.548113281654363 0.23636566867247938 2.899615242182672 -1 0 0
449 1 21.182242904325296 2.6403409344954967 0.6288976429145465 -1 1 0
21 1 21.11909676326534 4.623489192130716 2.503889160497925 0 0 0
566 1 23.266011108817533 4.752065502941247 0.5559522784373714 0 0 0
57 1 25.076703468297683 2.5047646403750345 0.8719244591822806 0 0 0
27 1 25.001287034188685 4.600840965391478 3.1306010164404947 0 0 0
807 1 23.301923115953194 2.0629735227922406 3.1930225412923057 -1 0 0
768 1 22.9200721468731 0.47021330308846615 0.6439923629892402 0 1 0
440 1 25.31845472972391 0.11608302301925136 3.0658702723648257 0 1 0
554 1 25.22193475308238 2.2429555070912217 5.323272632684094 0 0 0
478 1 20.696898064229917 0.4697107198245558 2.624855234856252 0 1 0
1299 1 23.18733033985037 -0.23565974714852336 5.194962562532718 0 0 0
540 1 23.01847566561701 4.410011517733554 4.8482184031057045 0 0 0
1052 1 20.886402898795858 2.147857951170063 4.785090248781752 0 0 0
349 1 23.154738352813645 6.516938960835719 2.797932570967873 0 0 0
84 1 21.06643905112746 6.602974806875681 0.6928981784099989 0 0 0
110 1 25.342855287391437 6.483822737059415 4.885225746596367 0 0 0
22 1 21.360820321242453 6.281463162753109 5.008207239237416 0 0 0
573 1 27.294502633601386 4.1370387621214855 0.6954002329971904 0 0 0
515 1 27.10229879471684 2.478157684211727 3.2189722003355166 -1 0 0
286 1 31.431473334319556 4.056493696964616 0.7239814583337126 0 0 0
291 1 28.984022870637986 2.3589994537407595 1.0319681777925982 -1 0 0
510 1 29.350940440478286 4.2124137181825905 2.6651461133943695 0 1 0
62 1 31.28659367670187 2.0090486717146567 2.9123503112195133 0 0 0
233 1 29.26561799831903 0.2863653885388295 3.0402354731887473 -1 1 0
507 1 31.26990226416755 0.45879361607022867 0.6512006269495927 0 1 0
247 1 27.168650674697535 0.2210584377701405 0.6928264839451496 0 1 0
893 1 31.338812751537198 3.7978257973119764 5.270255477859873 0 0 0
562 1 27.39211441216987 4.121718609935993 5.3925165128476005 0 0 0
72 1 31.661797584676297 0.03212544225388667 4.836499289979396 -1 0 0
508 1 27.218522422149213 0.22914899484259946 5.54783920190384 0 1 0
264 1 29.34518087354702 6.407458746621077 0.8974288945298189 -1 0 0
258 1 31.676864644836805 5.918854257531418 3.2799410826624755 -1 0 0
543 1 27.545655833386228 5.83373907562063 2.9985915649930726 0 0 0
486 1 29.415720823737573 2.119110163049851 4.8874939554141426 -1 1 0
615 1 2.3625372584792568 6.407269697545011 2.993673211732439 0 0 0
604 1 4.702524112648752 10.72453950067499 0.8753195400278491 1 0 0
548 1 2.167124746727719 8.418731460444464 1.0974346669654624 0 0 0
131 1 4.627229234634743 8.401616442199982 3.417754051692459 0 0 0
612 1 0.3241035117322534 10.355177396176964 0.9938586879483963 0 0 0
858 1 2.180674765040799 10.215615792751096 3.14119096012229 1 0 0
1092 1 0.4232308618587685 12.567019115564737 3.0792939646816726 0 0 0
378 1 -0.029659676452436712 8.036763985111577 3.0296922900077683 1 0 0
709 1 2.5330706989360094 12.407114028219775 0.7827828639265473 0 0 0
875 1 2.1789653840679053 8.353107142887204 5.056661250754114 0 0 0
869 1 4.267293299817975 10.964855143775832 5.124556659434376 0 0 0
37 1 4.45148218908666 12.396253484049648 2.834241328902479 0 0 0
666 1 4.542616412806535 12.636692515061393 99.23488095041614 1 0 -1
897 1 4.5000069489497365 8.761831881892336 99.33127916034991 0 0 -1
94 1 -0.2284111472677615 8.01147478098338 99.23999320586113 1 0 -1
38 1 8.223329520603295 6.498051540733116 0.7096656373289353 0 0 0
299 1 11.11966043383582 6.898048480920796 2.8950460529860162 0 0 0
811 1 6.768346954323258 6.6251113711533804 3.3691309431179355 0 0 0
58 1 12.871013047542535 6.893919819710435 0.7065957503519917 0 0 0
667 1 6.461462360087882 12.88076178263684 5.322827017692474 1 0 0
636 1 6.479332216338543 12.793750599085294 1.0275817774698477 1 0 0
561 1 6.556437951815722 10.391705886298142 2.7723061044954633 0 0 0
67 1 6.35809681457228 8.42968150606411 1.051026632285423 0 0 0
553 1 10.643761816070551 11.283586049000522 3.095139343500517 0 0 0
530 1 10.834902775357786 8.895631051237539 0.5012605478475038 0 0 0
870 1 8.689533401335927 10.98748923616578 0.6796445574554691 0 0 0
1297 1 8.912877626997718 8.550262758034428 2.404640815151703 0 0 0
556 1 10.989502649516563 8.929823820409768 4.7837075116376875 0 0 0
547 1 12.809772019260537 11.008930804944981 0.44435343898511137 0 0 0
278 1 12.99693633988721 12.375525774732465 3.0241465351780246 0 0 0
102 1 8.621764984334565 12.688748338645063 3.0884673898950323 0 0 0
780 1 13.134813781370507 8.849091073409056 2.6482880610578174 0 0 0
746 1 8.626367020759696 10.887077748021055 5.193501582971759 0 1 0
269 1 8.657866710157126 13.120853035894998 99.32299379116185 0 0 -1
108 1 6.886703958050582 10.730288814079865 99.24958698809802 0 0 -1
77 1 17.14127927432073 6.588654306251364 5.209859774233911 0 0 0
300 1 17.11740935641646 6.85781739483045 0.5751962941907454 0 0 0
504 1 12.984240823154925 10.498319732082894 4.853405152788408 0 1 0
377 1 15.282703571947113 10.664605312839642 2.6750327579159134 0 0 0
11 1 14.792659126766965 8.59911595453503 0.5929166649822114 0 0 0
748 1 17.153374549441217 11.056318515630037 0.49869799769585793 0 1 0
613 1 16.912005880296206 8.469851373556471 2.5745166055048005 0 0 0
85 1 18.689824971154266 8.924003107768637 0.5347768750421165 0 0 0
78 1 19.125444035782433 10.534082146593525 2.8121873223094025 0 0 0
409 1 15.035823206199193 12.888241775635931 0.8433079501688531 0 0 0
442 1 19.56507363989479 12.644290930019858 0.9671228784328343 0 0 0
288 1 16.999426066772685 13.03997143114589 2.4030902717404974 0 0 0
75 1 15.254239615527347 8.508989763087623 4.828725571791636 0 0 0
533 1 19.33762295222442 8.471679645974213 4.64948132496633 0 0 0
462 1 17.244345869792834 10.486089985268277 4.929791834163406 0 1 0
1269 1 15.225458850582507 12.534188097753617 4.932225981607633 0 1 0
89 1 25.596521730300235 6.482185069108231 0.7262878874043356 0 0 0
316 1 21.252622412200626 8.512070903968405 2.5711898321992765 0 0 0
663 1 21.280667359874535 10.289107850290568 0.70138544522928 0 0 0
603 1 24.915463290716335 10.60021856280855 0.8120592475786208 0 0 0
346 1 23.2823056966733 8.100210382434847 0.5606731042133747 0 0 0
34 1 25.27996660381883 8.288083791134417 2.6720373900300602 -1 0 0
1105 1 23.521672226991136 10.349301997996756 2.889847837314606 0 0 0
310 1 21.639827948634302 12.773543019098506 2.787813555476613 0 0 0
335 1 23.058018886712862 8.527429165130817 4.775988149185086 0 0 0
401 1 25.153046884288692 12.740727359127792 2.45561161881553 0 0 0
314 1 23.428567117851134 12.917753157874126 4.972661213894397 0 0 0
563 1 21.2056264106472 10.870822863881346 5.066371125488422 0 0 0
415 1 25.3447988060407 10.008068297546528 4.711418417867318 0 0 0
118 1 23.14534431603319 10.543389873332954 99.34385348991991 0 0 -1
633 1 25.39998522357225 12.853444752334958 99.0611652013148 0 0 -1
868 1 27.068366226061983 10.937320920465122 2.628455701359417 -1 0 0
1142 1 29.9670539198583 8.271383082826214 3.135864104762664 0 0 0
857 1 27.831044695668066 8.531894170189869 1.2510445100413594 0 0 0
129 1 29.246193271783362 10.692180570319934 0.7653607918881561 -1 0 0
630 1 31.266512241453583 8.33554187371499 0.929988522127015 0 0 0
546 1 31.843059350145307 10.585912985598961 3.017138847894449 -1 0 0
693 1 27.629728152496934 12.909984049228482 0.6011795180987232 0 0 0
411 1 31.357621517814735 13.019683426692392 1.0016646683022912 0 0 0
1209 1 29.118257958997606 12.62411400562202 2.9298607420013703 0 0 0
602 1 31.48479553498984 12.819717845389784 5.442442750755438 0 0 0
328 1 31.622743153698366 7.861274960423328 5.1065305237844765 -1 0 0
117 1 27.511190768462054 8.268661674429918 4.546137794957833 0 0 0
888 1 26.979182764465097 12.74673001602192 5.046793464641242 0 0 0
575 1 29.057640155100106 10.521713000188972 4.567061721309298 0 0 0
572 1 2.32187205633149 14.972402985851415 2.7373693002032624 1 0 0
357 1 4.551528829469242 14.627424300620632 1.1128470073209527 0 0 0
167 1 4.729576290006066 18.70391625023786 0.7391011942342833 0 0 0
701 1 2.321760867508635 16.934006719239218 0.6755793707260188 1 0 0
201 1 0.17473758939415612 16.87721251307933 2.6092073961074242 0 0 0
139 1 4.461703023716956 16.85303148537715 2.685712956097774 0 0 0
159 1 2.375444926882818 18.89806821357799 2.7791047655402643 1 0 0
695 1 0.7400746836499174 19.04249182849527 0.8639114254712402 1 0 0
68 1 0.41154145389068175 14.795295977599269 0.1960618711514983 0 0 0
272 1 4.443307471237793 18.851566239533174 4.938878654330307 0 0 0
937 1 0.3080122005721164 14.826372599666358 4.746800957423214 0 0 0
1025 1 0.05953220433084433 18.76994158514191 4.6133127799857805 0 -1 0
1218 1 4.389971714915784 14.840510754169298 5.048488235694187 0 0 0
1484 1 2.6038440158016245 16.737265982243656 4.721628976072575 0 0 0
99 1 10.714109956982645 13.05183581195711 0.9380278727001652 0 0 0
871 1 6.5899782779033504 18.5921027145503 3.036164276633353 0 0 0
682 1 6.304452776779107 14.671172136541562 3.0753452899214806 0 0 0
1126 1 6.539414616112487 17.094368439317336 0.7610584730431841 0 0 0
106 1 8.572052926822895 14.922614763031453 0.9929722088386408 0 0 0
298 1 10.573055173152447 14.868728778758964 3.4520117091719236 0 0 0
581 1 8.600461796486508 16.77600903487218 3.6129944307543704 0 0 0
392 1 8.5982991347751 19.231151436627623 0.507727126923405 0 0 0
686 1 10.545577242596817 17.304414323610214 1.269164125487702 0 0 0
788 1 10.792919967582078 18.717062112906653 3.0857684897577338 0 0 0
423 1 8.89867131576126 18.461655544758795 5.515357863037947 0 0 0
905 1 6.364565631569066 16.464106637327163 4.838967633558311 0 0 0
171 1 12.687774197850082 19.11331674588721 0.627954330064595 0 0 0
342 1 12.630819248162222 18.675869487721585 5.588255502485265 0 0 0
489 1 12.954534308283488 14.178924237260128 5.304544836203363 0 1 0
133 1 6.349461659124682 14.80681897553632 99.30622597680804 0 0 -1
144 1 12.753648885094933 14.803521389982755 1.1100831414617554 0 0 0
661 1 12.697357994693238 16.53751202075284 3.377588634740209 0 0 0
66 1 14.67789855126409 14.749270703310746 3.0077193029140354 0 0 0
109 1 17.11126245234069 14.921781978075789 0.4105697618763608 0 0 0
502 1 16.56890306385877 17.17709703589897 3.083368523946241 0 1 0
471 1 16.774903766260405 19.16247305533724 1.0469392867560092 0 0 0
1230 1 14.502925386057402 19.02546267019157 2.9955400642177374 0 0 0
590 1 14.80420169898357 17.01112529334309 0.8697534271443136 0 0 0
79 1 18.682592525652765 17.332561736526795 1.0882004772087328 0 0 0
173 1 19.069153552040373 15.273761547255635 2.8621904345045306 0 0 0
394 1 19.082771288236593 19.150473929302564 3.136000233872049 0 0 0
938 1 16.574706998468766 19.26383826851847 5.496254347512145 0 0 0
1132 1 14.689497709686004 16.84726104900285 5.20890450079133 0 0 0
404 1 16.947884198546987 14.850443574549214 4.826875846498743 0 0 0
407 1 23.08690247572037 12.846652033510008 0.6397910280525126 0 0 0
88 1 21.222617564243265 15.150277300826506 0.9721346294099931 0 0 0
152 1 23.233183773229815 17.08788456042929 1.0253597508243653 0 0 0
187 1 21.221229794962795 19.239647458279677 0.7783112235179407 0 0 0
668 1 25.095547718619933 19.19972941391851 1.1252577431678965 0 0 0
698 1 21.0358646177274 17.295996892000833 2.6625566767145905 0 0 0
862 1 23.31782523818642 14.807736018582101 2.7816142283996665 0 0 0
959 1 24.984197155633296 16.969802085926236 3.138109328207272 0 0 0
537 1 25.27835752718818 14.822761221078435 0.593689661237582 0 0 0
924 1 23.05530525899096 19.440722451992 2.8947281496904456 0 0 0
1437 1 25.399529807755176 19.332984238489693 5.052647006200012 0 0 0
1414 1 21.085850541358425 19.26298507075114 5.33733656213342 -1 0 0
978 1 23.202940141229686 17.422244601023248 4.971904152644606 0 0 0
192 1 24.85874066190481 15.007757169207045 5.109095732504121 0 0 0
123 1 25.30332424554558 17.202743529089364 99.3969868786824 0 0 -1
149 1 23.1143287002302 18.73273480318993 99.39067654792755 0 0 -1
1573 1 26.983776700074667 14.654485960133584 3.1444696620681114 -1 0 0
306 1 27.118283689799686 16.891122122764912 1.081890522546293 0 0 0
367 1 29.68583954370946 15.163632764439315 0.5864271148280124 0 0 0
160 1 29.626494038191005 18.811272608120913 1.3393274579444638 0 0 0
671 1 31.414566628366025 15.06615953076591 2.8423992943284766 0 0 0
1181 1 31.774095177371976 17.098346575794235 0.24061405295200983 0 0 0
1152 1 28.98894344008739 16.793091775915507 3.0991387991190353 0 0 0
189 1 27.329744468129395 19.082566728395 2.8305128547284237 0 0 0
382 1 31.832480746822196 18.933769182403672 2.535071620185919 0 0 0
419 1 29.211930162179826 18.787353719873103 4.721579542653209 -1 0 0
936 1 27.067427746146087 17.100662462462168 5.04926765904606 -1 0 0
1602 1 28.915158937202513 14.764951163615097 4.874991569123348 -1 0 0
223 1 31.287880559904504 16.643000599286406 4.800145959141621 0 0 0
157 1 27.57426978670019 18.795181916080836 99.1429442558951 0 0 -1
644 1 29.6975899352002 16.81592670145019 99.10057038985363 -1 0 -1
379 1 31.387080961499084 14.46403082371492 99.26974024811582 0 0 -1
124 1 27.265773059132783 15.116739264800673 98.93208847534765 0 0 -1
243 1 4.0404186441687875 21.097368411059094 3.2478254833148896 0 0 0
926 1 2.8568892944122 21.087565344619446 0.8130754587625709 1 0 0
168 1 4.174917376010209 25.877916253544935 2.7466609299781366 0 0 0
369 1 4.380053240846206 23.357960247695033 0.7294571055539038 0 0 0
198 1 2.4250394040428462 25.360396652725683 0.9165028849447141 0 0 0
770 1 2.302991159401242 23.18588628351313 2.772529988328497 0 -1 0
745 1 0.29567800873902017 21.363443592335436 2.4582744565249217 0 0 0
165 1 0.07055937611685831 25.16629033546191 2.733649032488819 0 0 0
358 1 0.33992958142092655 23.180949203022422 0.575089451509664 0 0 0
128 1 0.2442116664630931 23.17945101223287 4.956679110961273 1 0 0
626 1 4.04440879712883 23.357528487020552 4.978332963253668 0 0 0
204 1 2.0480787859989684 25.429726259171208 4.584219651210192 0 0 0
4 1 6.163483141443484 23.02099683504882 3.2470663502472012 0 -1 0
700 1 1.689883331014643 20.908047631102583 4.747802686894818 1 0 0
455 1 5.998377137465158 25.184107162115357 5.061968732543628 0 0 0
479 1 0.12373005743348488 25.19200853051865 98.98796166357954 1 0 -1
387 1 6.508701120926411 20.768807806539886 1.5983013475433214 0 0 0
418 1 6.763708324901321 25.26202923140715 0.8986875735208829 0 0 0
425 1 8.806985248532811 20.68297377713835 3.016602194381445 0 0 0
685 1 8.47429746035244 23.062538364446876 1.3095322927739754 0 0 0
239 1 10.766530804328674 21.404903488404287 0.7742052662354386 0 0 0
169 1 11.073511396870446 23.26087742719048 2.7648233174711816 0 0 0
205 1 10.486571001990272 25.377265538780115 0.80303044924514 0 0 0
13 1 8.156239460721961 25.348580666329646 2.9510265450139666 0 -1 0
430 1 12.569896990186145 23.312828133921208 0.5230354289150846 0 0 0
56 1 12.497581072731988 25.801123287549633 2.6508088727603174 0 -1 0
1698 1 8.465096029749562 22.929389621975428 4.74379633401942 0 0 0
689 1 10.762499372628659 20.66871625899563 5.207419079120399 0 0 0
302 1 12.612415878478965 20.8840130976216 3.124185386855057 0 0 0
1257 1 10.766323185292094 24.854919644132206 4.605349839359881 0 0 0
80 1 6.5893329637797216 20.52051879466707 4.779755435161532 0 0 0
170 1 10.389021603012894 23.738787785955356 99.28686378101305 0 0 -1
262 1 12.580764201732187 25.29966534972712 99.247072419472 0 -1 -1
135 1 12.924090686485654 23.213971928225607 5.109883362808427 0 0 0
373 1 17.057422533893536 21.22988903670665 2.78470279387565 0 0 0
116 1 14.540977877662732 21.375640387061765 0.7848262850191815 0 0 0
435 1 14.687850258088936 25.354077710625234 0.6622417712737031 0 0 0
182 1 16.535262535079006 23.103075998437024 0.4610255218053562 0 0 0
183 1 16.806211351739524 25.289508173643895 2.64736274200677 0 0 0
224 1 14.632593361095417 23.44282087917834 2.489261611046682 0 0 0
412 1 19.013399558536264 25.091462441874736 0.4493717371262015 0 0 0
114 1 19.221372562566515 21.13042937651335 0.8469388856068827 0 0 0
366 1 18.72835193749455 23.590897669359446 2.7588507324254805 0 0 0
617 1 19.109703492760026 25.630793124725876 4.854093380855231 0 0 0
755 1 14.664302598541672 21.387077420285756 4.664216711947814 0 0 0
206 1 14.604235496382381 25.264375678772723 4.744207071093169 0 0 0
218 1 16.505778190146454 22.77069793693989 5.251019806428199 0 0 0
427 1 14.441800460986485 23.191111987051332 98.98735686265137 0 0 -1
177 1 18.94174098191465 23.00888627597756 -1.0525244360470225 0 0 0
514 1 23.502067142803703 21.34109607011623 0.9064040902083258 -1 -1 0
143 1 23.124542303531825 23.358277192833853 3.005502498073259 0 0 0
441 1 20.969395480019127 21.404373223319 2.825675625639819 0 0 0
191 1 25.523785384471356 23.410062214607972 0.8071643653183758 0 0 0
217 1 21.201525657547297 23.643804658847962 1.0547117390555956 0 0 0
469 1 25.677724916167012 25.480362537917447 2.72086679720436 0 0 0
920 1 23.65729341418709 25.5257718890207 0.7266403213283653 0 0 0
501 1 20.812979978425062 25.9146514286981 2.701976837216762 0 0 0
675 1 25.289661823021113 21.369973574689034 3.08903150175096 -1 0 0
742 1 20.926998007863922 23.873840453474116 4.602886835756246 0 0 0
659 1 23.18477808555234 25.495306536684723 4.905917189347511 0 0 0
903 1 25.56184825161431 23.745780120693784 4.6938664929003036 -1 0 0
911 1 23.025740528010253 21.427523864660333 4.599608442759169 0 0 0
638 1 25.203423169382944 20.744729906901835 98.9455938443948 0 0 -1
181 1 21.74050827464482 21.353183745847954 -0.9964406754449905 0 0 0
473 1 21.398865488303855 25.329895012660547 99.28702528323898 0 0 -1
249 1 27.512012612769052 23.483843363880506 2.4132069140479646 0 0 0
221 1 27.519064457261024 25.762908766067913 0.5582914182034505 0 0 0
453 1 27.427809892804667 20.97760625754268 0.6166930929945295 -1 0 0
161 1 31.628445817661373 20.905494118602718 0.6134769531519508 -1 0 0
154 1 31.59052030585758 25.322635475763203 0.7512422815167246 0 0 0
150 1 29.707949028203085 22.934741438807848 0.3539977755657813 0 0 0
470 1 31.817514398707615 23.317852041686713 2.388539167175108 0 0 0
450 1 29.725819228548268 21.132384402397207 2.6839526911698988 -1 0 0
890 1 29.455091205639715 25.4757695433078 2.431651210823016 0 0 0
963 1 31.929959776750632 20.80902925851932 4.580101456086387 -1 0 0
1202 1 30.153593535609733 23.30128517652586 4.53643342818968 0 0 0
980 1 27.700729274117418 21.441219776235847 4.678936062480342 0 0 0
448 1 27.86631849909782 25.09632603172336 4.589392451652965 0 0 0
445 1 31.785597781441272 25.419171126216312 4.860635283756274 0 0 0
222 1 29.804009436095935 24.81445972725643 99.10145686684861 0 0 -1
1214 1 2.226379677135145 27.6099672963756 2.5650552596492204 1 0 0
267 1 4.823733045743608 27.491122188566415 0.45912182087929754 0 -1 0
219 1 2.3287407092544163 29.741286061056503 0.5024902735064317 1 0 0
446 1 4.4025746278749525 31.56810711460639 1.1044613158507313 1 0 0
488 1 2.309228423995347 31.49750128540475 2.8153302925780728 0 0 0
428 1 4.435187696617026 29.490830661986617 2.527353213128045 0 0 0
250 1 0.1722238308406992 31.56235559773245 0.8772588276081482 1 0 0
737 1 0.27511205905429637 29.292644170841374 2.4006801835834612 0 0 0
232 1 -0.004202411857544707 27.464722930801667 0.5883825895087321 0 0 0
496 1 4.243877965454322 31.495292602505447 4.891147867744075 0 0 0
29 1 0.07855903887114876 31.28793176602411 4.576960139948546 1 -1 0
255 1 0.12344989868003016 27.20200882174365 4.393627004149311 1 0 0
1189 1 1.951085457913888 29.34132347909765 4.7441820336134315 0 0 0
463 1 6.522493969971352 29.48629025872485 0.6526848598480882 0 0 0
1474 1 4.316677536737348 27.425539184338007 4.812455012287876 0 0 0
252 1 2.713319400882958 31.50518441960906 99.27086406786545 1 0 -1
492 1 7.869298318367525 -0.0004376905774262493 99.27467403251569 0 1 -1
136 1 6.343434190122402 31.364805108883008 2.7905331908428574 0 0 0
452 1 6.553120458864889 27.487958140894268 2.978073353292203 0 0 0
226 1 8.079747836426115 27.43667221285084 0.5336565293609715 0 0 0
380 1 9.961911262012537 27.29848064114789 2.272438883706523 0 0 0
454 1 8.521404857821434 29.585063112508884 3.115998797831024 0 0 0
293 1 8.494349594880973 31.5438469263036 0.764215490575147 0 -1 0
458 1 10.744801099029871 31.476635588093067 2.1886863563743555 0 0 0
331 1 10.374649092108607 29.201828978394957 0.3237256768342862 0 -1 0
343 1 12.810977902985803 27.335027207201 0.38537283429345026 0 -1 0
497 1 12.243660964189553 28.677461534276297 2.6397033349330634 0 0 0
297 1 12.978586141198889 31.07511951674757 0.7373716171708876 0 -1 0
393 1 8.549340124010879 27.432064516378748 4.732710640219046 0 0 0
611 1 6.204719904472347 29.338065815670095 4.931500991838817 0 0 0
883 1 8.426316725397276 31.390769006213308 4.602406960545689 0 0 0
676 1 10.608850561410872 29.679074856782115 5.200205144746761 0 0 0
908 1 12.932181781780116 31.572245563533706 4.694767981939736 0 0 0
526 1 8.486961789567074 29.794827989137787 99.30860765976021 0 -1 -1
491 1 12.296285270510877 27.283277798771607 4.701700603301784 0 0 0
240 1 10.744078306521374 27.822756089096227 98.4521212530338 0 0 -1
229 1 6.537041890256646 27.495802778143734 98.90203267571036 0 0 -1
259 1 12.80340977896114 29.4267732872057 99.12979645955822 0 -1 -1
12 1 14.653565635891994 0.11807389290863263 0.8615271284817466 0 0 0
522 1 18.71974804488808 0.38103636641117206 4.417641047409176 0 0 0
274 1 15.070333068436646 27.371456021916668 2.6565919813398713 0 -1 0
753 1 16.808869229430602 27.179892803479493 0.5374471980527784 0 0 0
41 1 16.954548244004627 32.005857908654555 0.40606554876971035 0 -1 0
495 1 14.966341940550233 29.211731601698304 0.8461938470304503 0 0 0
942 1 14.977184059759418 31.566174263698812 2.2149686546744456 0 0 0
751 1 16.694353200130887 29.70801998836661 2.8198539137278935 0 0 0
28 1 18.83400074517816 31.566381998778596 2.01327233453877 0 -1 0
213 1 18.8821964732746 29.256903811414574 0.33898263070475837 0 0 0
251 1 18.96599185973989 27.876844971000974 2.5466095989903526 0 0 0
399 1 16.76112679969142 31.75451356437405 4.606574377195179 0 0 0
241 1 14.561475732089601 29.49483720905775 4.525230346051964 0 0 0
284 1 16.812416895497417 29.803732987778687 99.14668294993407 0 -1 -1
481 1 21.29832361533881 27.405774580845513 0.8450587734141948 -1 0 0
466 1 23.30053690588391 27.76254797228447 2.9458952301501413 0 0 0
898 1 25.372108174864202 27.656334549181583 0.5339647186074703 -1 0 0
248 1 21.09210089973111 31.831821763791194 0.599646748286085 0 0 0
417 1 22.901928020303036 29.472188742721137 0.9043301252255688 -1 0 0
193 1 25.150248240695408 31.63089245948173 0.9819450818624921 -1 0 0
209 1 21.005682877854763 29.595689277565874 2.7393613747173715 0 0 0
571 1 23.281906716889868 31.759506656713683 2.739768553569754 0 -1 0
658 1 25.37977674825453 29.37435255076082 3.002427614809719 0 0 0
1015 1 21.51574070721209 27.63119661468264 4.739342738941549 0 0 0
17 1 20.997040642582256 31.69405643479222 4.40419320769696 0 -1 0
443 1 25.590064264520823 31.28648783655912 5.104827772389634 0 0 0
948 1 25.5133716663886 27.404516465016695 5.302133562700964 0 0 0
281 1 22.84421179420889 31.65985345842817 99.1712456954293 0 -1 -1
607 1 23.18062334925339 29.8723112893896 4.790917949624434 0 -1 0
158 1 31.38391573440833 27.334210311041346 2.7308505314727665 0 0 0
253 1 29.463598778183492 27.735003648678564 0.7123489530154644 0 0 0
957 1 27.386541327056516 27.61432450637081 2.5330086294475485 0 0 0
196 1 27.236403974953525 31.73531473412936 3.142779365495581 -1 0 0
211 1 27.543065082997146 30.073067069703864 0.9317537122551752 0 0 0
509 1 29.348256153630437 29.699248801016726 2.87236777082592 0 0 0
220 1 31.17401604321898 31.61407022755521 2.622169805061359 0 0 0
54 1 31.399812713859664 29.6974234524819 0.8476847584797549 0 -1 0
285 1 29.488120671915063 32.11166675796283 0.4786024073596877 0 -1 0
802 1 31.481586596364398 29.440265458725143 4.776967831048274 -1 -1 0
550 1 1.7266710802581082 0.15426337369427867 5.195374528607676 0 0 0
1061 1 4.762626655867861 4.0182995247503275 6.866806916883978 0 0 0
1200 1 2.2075410726409905 2.128529148276118 7.144373686234448 0 1 0
459 1 4.715726359126864 2.0082732813189326 8.823681911827823 0 1 0
620 1 2.5163222704506 4.247696219168055 8.948587510750885 0 0 0
356 1 -0.08463055309789252 0.767609987886438 7.038418586416383 0 1 0
712 1 4.2641545253400395 0.4445461205490098 6.6626954233891125 0 1 0
970 1 0.46652540152720257 4.548518360592119 7.453009324486735 0 1 0
345 1 0.2335191150273143 2.3899969127641714 9.332648793058455 1 0 0
520 1 2.208761796581325 0.33642594828057865 9.308573450986398 0 0 0
992 1 3.297373348764817 2.19873847693124 11.343628537243676 1 1 0
1384 1 0.8951878744755779 0.2344321357291672 11.376523845684911 0 1 0
1273 1 2.673918702653708 6.665646836354397 10.22403234485201 1 1 0
1121 1 2.8047239219777054 6.418362961379294 6.9967422815922315 0 0 0
1264 1 6.673596772707613 2.2017262154854103 6.967401453606634 0 1 0
1636 1 4.681919781949878 4.700454423013901 11.0492240946482 0 0 0
432 1 12.788048594092439 2.76578647507486 5.035372328299651 0 1 0
606 1 5.533554198284176 6.999183205325455 11.326424835979312 1 0 0
499 1 6.796650909637086 4.4885272140958135 8.86488206798266 0 1 0
130 1 6.350880032311576 -0.06373731124596624 8.976765708750884 0 1 0
426 1 11.080911739989357 2.271827721306876 6.864766411874015 0 1 0
525 1 9.084955276797599 4.68681135146692 7.114816134657312 0 0 0
498 1 8.59542350734762 2.3482241761004663 8.947386667145183 0 1 0
887 1 10.563624556935018 4.7326434220386595 9.67099666923143 0 0 0
779 1 12.45493919780852 4.838049628545062 6.917243013505278 0 0 0
1563 1 8.46762746185642 -0.08513371674345166 6.869578237860852 1 0 0
713 1 10.3147142162782 0.6044816785442052 8.958948392422942 0 1 0
340 1 10.626461798430041 2.4513741153232744 10.910401115179264 0 0 0
374 1 12.422021528228349 2.6992603349191566 9.216236170999052 0 0 0
1089 1 7.014184072097872 6.656751145656419 6.724767610135122 0 0 0
930 1 8.225482374153362 6.408607529150648 9.50517642604355 0 1 0
176 1 8.393178932113925 3.6698151546895486 11.56920568202448 0 1 0
1066 1 8.228333351900126 0.4166280039489407 10.76569036489716 0 0 0
1322 1 6.272399120569257 2.379083645224055 11.090811807423346 0 0 0
721 1 14.730170383305039 0.49440246207287647 5.119172334904959 0 1 0
850 1 12.773184609226455 -0.006342202557085608 6.716702803847037 0 0 0
1611 1 14.825977492513786 4.583879936755732 8.703745112767454 0 0 0
1044 1 16.415652066196536 2.1892705185583274 9.049816771468171 0 0 0
60 1 17.109155233637683 4.257262176482522 6.936127319019509 0 0 0
352 1 14.282185411225509 2.385280831096662 7.0714471411564075 0 0 0
1587 1 18.877503050530382 4.010747935986808 9.050139373318366 0 0 0
444 1 19.002408825977863 2.3675683071410853 6.660721687259718 0 1 0
750 1 14.682243675975933 -0.0237369106739391 9.01314419961259 0 1 0
1274 1 16.736902394899413 4.029752922072061 10.99479909088908 1 1 0
63 1 16.426016879649815 0.2950751606122727 11.090204673754165 0 0 0
1575 1 18.927344093662523 2.3933138008877393 10.8950974823587 -1 0 0
1529 1 14.996634857374046 6.40302489779459 6.968472817846876 0 1 0
549 1 18.344046186139536 0.30660896197792986 9.024914004996706 -1 0 0
312 1 18.888482650901988 6.3967669828702824 7.1628969035632615 0 0 0
1701 1 17.202196539340857 6.178377881177063 8.989320269643875 -1 0 0
1401 1 18.826048962573896 6.067312072754129 10.915671779075481 0 0 0
725 1 16.80784739220185 0.08563352766807336 6.874332691817143 0 1 0
93 1 21.14053209271455 4.1387302902846415 6.938754164536274 0 0 0
1016 1 23.357120550276473 2.206116240693952 7.292173876534593 0 1 0
1311 1 20.853140036108716 1.6323907132948976 8.923375278898927 0 0 0
877 1 23.250890112919677 4.633721880411124 8.520097774211408 0 0 0
895 1 25.4020589708473 4.448277330815903 7.183829674746399 0 0 0
260 1 25.52332195554033 2.471931076119894 9.04008401321404 -1 0 0
1008 1 21.210178554197604 0.0776736254290068 6.658684500077026 0 1 0
318 1 23.32328942931673 0.0054047680777462095 8.445269361741781 0 0 0
2064 1 25.04069232208496 -0.10848263936104897 11.033832197211968 0 0 0
608 1 23.26941995385069 2.5373801142715147 10.401515392783727 0 0 0
619 1 25.53809643620881 0.23613083855278688 7.765204626965287 -1 0 0
164 1 25.467460362714498 4.647087907131354 10.842030177600467 -1 1 0
2567 1 21.09263539235941 4.324211337819371 10.498067145124168 -1 -1 0
2173 1 23.081909622129555 5.90181111617684 10.736980837783534 0 0 0
864 1 20.884018193624584 6.461286274812511 8.804890232696785 0 0 0
809 1 25.15325695893321 6.832483387349464 8.924123158273833 -1 0 0
825 1 23.357778353489216 6.573930198732496 6.628713803013335 0 0 0
1237 1 21.132213513001187 0.3684860035777205 11.251499163858014 0 1 0
10 1 27.706865965278293 2.23135047456277 7.407307918932654 -1 0 0
652 1 28.068152717230554 4.335474536429127 9.25156102665582 -1 0 0
361 1 31.50933635335074 4.330536358848037 9.416911764825771 -1 0 0
720 1 30.91630138042576 2.240780373327998 7.4330715432844015 -1 1 0
792 1 29.453099607497663 4.42965122035236 7.129632190704799 0 0 0
321 1 29.478646768380624 1.8613587770572868 9.556033070866913 -1 0 0
424 1 27.50889617726751 2.2259592785783364 11.409995246459596 -1 1 0
991 1 31.807394486238465 -0.10979737514338846 9.601936791791482 0 1 0
1389 1 29.786929069440294 4.215027437911337 11.382597416192809 -1 0 0
33 1 29.325483795552497 -0.06654468250718101 7.496309240307393 -1 0 0
87 1 27.39745029024087 6.6891741120379065 6.960778678603115 0 0 0
287 1 29.616304401665822 6.784435130997083 8.935773377903113 0 0 0
790 1 29.622509449637935 6.212748030946385 4.820998497177371 0 0 0
1122 1 0.24021174768375966 10.534025054793208 5.238118538614089 0 0 0
625 1 4.985091865121771 6.394465945493728 8.825917304435007 0 0 0
1234 1 0.3375114402680118 5.7743976002502215 9.725533589942128 1 1 0
634 1 2.4320882945823534 12.928875737311568 4.80968598187651 1 0 0
637 1 4.820291171367057 8.514148148815435 6.908064388013626 1 0 0
567 1 2.0572900586794214 10.713214004364724 6.957296411740551 1 0 0
40 1 2.3263871751512943 9.018652536383582 8.968779375328719 0 0 0
1380 1 4.507067807085545 11.41312362098625 8.629809645135389 0 0 0
395 1 0.1588309767775807 10.895931357075296 8.779414612301599 0 0 0
1213 1 1.8681828527029753 13.019674310235914 9.061675746242615 1 0 0
610 1 0.1898969590369884 13.0425980221317 6.996361723230164 0 0 0
9 1 0.319467224433947 8.574274621890256 7.259900554674845 0 0 0
578 1 4.209317501272715 13.281745429193382 6.965227752806288 0 0 0
1247 1 2.3367169094730778 11.073574226874353 11.110500082860614 1 0 0
594 1 0.016401376311351926 8.815947510670117 10.779998890162641 0 0 0
1703 1 4.4880849860087455 12.709011971779912 11.020950129671306 0 0 0
1101 1 6.761223496656971 10.942302096779017 7.410273890100123 0 0 0
2628 1 4.701058467298834 9.32289365894976 10.530623984036508 0 0 0
268 1 0.3263103527055336 12.772216978761064 11.167953213578098 0 0 0
1084 1 9.009128016545114 7.339748868797115 4.7766968080513506 0 0 0
103 1 10.496395868041251 13.05675486849707 5.54161932183846 0 0 0
1330 1 6.641872023548113 9.022289009896507 5.1783302191047875 0 0 0
580 1 10.841896395784142 6.943181478726896 7.178166266243944 0 0 0
7 1 12.785571352249665 6.449587627634867 9.504619253567743 0 0 0
270 1 6.47922127877208 8.59277987069866 8.995481549643197 0 0 0
1155 1 6.888850985798698 10.55451679514176 11.847220774210628 0 0 0
137 1 6.768098676731101 12.692486370672295 9.706361526794849 0 0 0
516 1 8.73800378251712 8.659585646814397 7.088634515232098 0 0 0
596 1 10.537086611071718 10.617860598559608 7.142008081528739 0 0 0
591 1 8.880671119800846 10.509564557802332 9.367946533876365 0 0 0
1195 1 10.527764876288575 8.262310593198446 9.443871314805554 0 0 0
1091 1 12.937317538248593 10.115232802080756 9.599130043058453 -1 0 0
1338 1 11.109619232763091 12.71422168069678 9.087623104802814 0 0 0
1067 1 8.674785594749517 12.883038939463592 7.464438959839171 0 0 0
582 1 7.9180578619897055 7.929767036287336 11.784037437561324 0 0 0
146 1 19.02387405772482 13.150071435351117 4.426103204771349 0 0 0
598 1 12.729015045286555 8.722241834036817 7.056151750009271 0 0 0
1681 1 12.750063271294204 11.878876083099673 7.045922163501276 0 0 0
141 1 17.112245827429724 8.609237346060345 7.201851324278838 0 0 0
597 1 14.896455729170011 8.467307498897855 8.78759813963566 0 0 0
915 1 16.95848269441037 10.631522055844153 9.100895978682319 0 0 0
317 1 15.135531385059094 10.461906656958039 6.871299330656293 0 0 0
557 1 18.931844100698253 10.643490968647424 6.9445605052658035 0 0 0
1048 1 19.227702033829146 8.511717047509919 8.7131009988197 0 0 0
1579 1 14.802291216910465 12.651130742681303 8.917203723937986 0 0 0
744 1 17.178703742438767 12.07396727048651 11.302511216513409 -1 1 0
273 1 19.321323566830976 12.96702709737594 9.410418195883144 0 0 0
1098 1 16.9051355153466 12.807487872660433 6.669719745940563 0 0 0
92 1 17.298516264899483 8.353225110275966 10.998370674868575 1 0 0
527 1 19.353781433276072 10.437117874284981 10.94678439004622 -1 0 0
1344 1 15.095337292496362 10.150211907129117 11.013281455138394 0 0 0
1163 1 12.689263258270941 12.23853657985301 11.77679341014768 0 0 0
653 1 21.306608130056315 10.896860479455233 8.960429347179486 0 0 0
1145 1 23.398950014777135 10.799649540593744 6.747400868471964 0 0 0
859 1 24.896527310577056 8.640267417828088 6.995964549327855 0 0 0
337 1 21.170624812446036 8.65632642513077 6.921414616712295 0 0 0
616 1 25.219183636227218 10.586529618847711 9.12986593189118 -1 0 0
451 1 23.05036133735082 8.866827756183016 9.0725139730697 -1 0 0
949 1 25.288104197341653 13.008337657329072 7.250012447232089 0 0 0
82 1 20.695193120317782 13.178331284770136 6.541166307166027 0 0 0
1977 1 22.675101003356822 13.237152709391168 8.695916595158309 0 0 0
764 1 21.000395357152147 8.246819135713539 10.950713393561315 0 1 0
939 1 23.32652638691522 10.543449755523035 11.166247717755654 -1 0 0
1151 1 25.580329070895807 8.284238839302457 11.202911966398027 0 0 0
1049 1 24.78253576039943 12.677619884547074 10.811164083128748 0 0 0
1910 1 21.249370084243186 12.933455408944718 11.462883786266984 0 0 0
795 1 31.87473108140689 6.26379310648092 7.389023714082252 0 0 0
998 1 27.621581603093194 6.682371445731767 10.8630990718036 -1 1 0
570 1 27.38238462678766 8.58157451161602 8.899430489876082 0 0 0
107 1 31.665358653089648 8.91363347292565 8.873315809032807 -1 0 0
406 1 27.131396209514904 10.762987935414541 6.663758393673419 0 0 0
42 1 31.467816661097896 10.585052206571094 6.662114788967194 -1 0 0
410 1 29.377304971165287 8.94443640051633 6.61689265737492 0 0 0
1024 1 29.16024193581072 10.700287580645545 8.925164974727197 0 1 0
307 1 31.396150457471872 12.65355192428058 8.817401802053345 0 0 0
842 1 29.110588387312255 12.712431979015891 7.166706961871238 -1 0 0
477 1 27.58056243891426 10.553044041180494 11.045499979879867 0 1 0
1310 1 31.319500258216795 10.994081572070781 10.999289945284474 -1 0 0
83 1 27.185963507091433 12.547294326568641 9.090692238117521 0 0 0
681 1 29.284759442099887 12.733432187369914 11.14632588756338 -1 0 0
2875 1 29.839312996772417 8.539463196054951 11.122878431644766 0 0 0
467 1 2.075292440956151 15.161534312539702 7.276092594202811 1 0 0
999 1 2.175079392351646 18.763128991144693 6.5438579825386105 0 0 0
932 1 4.42312333605465 17.171504613229533 7.187387314611363 0 0 0
784 1 3.78101347677841 14.875430316779067 9.49817687178419 0 0 0
814 1 4.080252303591206 19.228232698381913 9.301561812593649 0 0 0
119 1 2.0255074549746217 17.11405971861177 8.97560536766691 1 0 0
574 1 0.05014469409606416 16.801035787312028 6.591923396120487 1 -1 0
1217 1 32.915913082806576 18.73381522183551 9.021516689093005 -1 0 0
687 1 -0.11933061595756851 14.744049482963636 8.987173451950829 0 1 0
1695 1 3.7854929539422795 17.334315291910197 11.307392408288154 1 0 0
403 1 2.026402117169998 19.240166659917854 10.730561916848503 0 0 0
1405 1 33.06807166355568 16.88952118901232 11.148791781737293 0 0 0
559 1 2.038102243568748 14.936231167785447 11.175981031849354 0 0 0
216 1 6.197703505371027 18.944909349236237 11.337887718001504 0 1 0
643 1 6.751822208258723 19.060637692080935 7.459488148692275 0 0 0
360 1 6.1982603089852235 16.981172157071693 9.601895803408361 0 0 0
1378 1 6.286970917875574 14.781208813766469 11.127407583585304 0 0 0
583 1 11.013590092162145 16.551778901031078 5.428896825779223 0 0 0
1058 1 8.403983553367619 14.740136279474179 5.461995080555626 0 0 0
826 1 9.493190894561694 12.558840127936385 11.469102585823538 1 0 0
35 1 6.319107104665121 14.952899960960575 7.171425681415921 0 0 0
145 1 8.404957929970468 16.683978196749372 7.744669631563358 0 0 0
347 1 10.770917642831016 16.692734865882247 9.446538369628856 0 0 0
660 1 10.635768230977076 18.673776690547374 7.481426325924264 0 0 0
330 1 10.774417742201504 14.967432396733999 7.51502200060712 0 0 0
295 1 8.75329354864433 14.526056972665573 9.727545629853728 0 0 0
647 1 8.753508540519258 18.55381370608385 9.624487035536236 0 0 0
398 1 12.624914676687236 19.12129012533035 9.237220066769213 0 0 0
180 1 10.779345189131385 18.527356127489988 11.411929630112637 0 0 0
1102 1 11.173820061648977 14.313127172257206 11.434193389854967 0 0 0
2189 1 8.377031183874774 16.746869713149295 11.546197891552318 0 0 0
584 1 18.74198766259922 16.839951374255545 4.949757039428361 0 0 0
973 1 12.974938930266426 16.69205867100874 7.530202304645251 0 0 0
315 1 13.050849109696554 14.616152940583346 9.137083644557542 0 0 0
148 1 14.914835672169282 14.625722572436707 6.970996621263562 0 0 0
1450 1 14.709167042920152 19.079802746163853 7.087678963105555 0 0 0
1248 1 15.5522635213293 16.830875046555686 9.168639259445584 0 0 0
1109 1 17.011607288200075 16.755239507908733 6.915236334981569 0 0 0
363 1 16.818815981292584 14.0050240785998 9.047965924665665 0 0 0
362 1 18.627762344208264 14.777411258859354 7.344136944011508 0 0 0
156 1 16.962444230335272 18.98594368698163 9.328022337316975 0 0 0
587 1 18.521182826848218 16.36687219588622 9.649208829418193 -1 0 0
1346 1 18.95660962786979 18.8639349203471 7.059047311547151 -1 0 0
726 1 15.27247178114611 14.116766239035641 11.083271083387935 0 0 0
52 1 17.321579047323667 16.499999878587484 11.877566030354961 0 0 0
456 1 19.09353747243003 14.525841359220346 11.482795155715202 -1 0 0
1503 1 19.080004141384805 18.847838534263328 11.334189375977587 0 0 0
1462 1 21.45206727731337 15.284526322597698 4.528809773350933 0 0 0
1208 1 25.77725815446801 14.627957586843866 9.427159689879877 0 0 0
1410 1 20.542061450626615 18.608628457562286 9.063711044282059 -1 0 0
447 1 20.79814456992675 15.643517663708314 8.928035956103784 0 0 0
151 1 20.985141006020957 16.980302296836925 6.58297407379465 0 0 0
832 1 22.964003237187203 15.257436799457407 6.917459689969173 0 0 0
341 1 23.49161883655229 16.840497142928747 9.010351563136572 0 0 0
431 1 25.202189722660975 17.457336761971348 7.326796581474589 0 0 0
960 1 23.06822071779233 19.508043815800995 6.943497197102141 0 0 0
2180 1 24.818190998798634 19.162072860573 9.251208007003921 -1 0 0
1880 1 22.573211047401003 18.726653216474507 10.844410286022727 0 0 0
614 1 25.198209428357522 16.853993851922983 11.193994615248858 0 0 0
523 1 22.809163173594598 14.875393136357351 11.124117772621924 -1 0 0
1458 1 20.883645511907496 16.64387240576828 11.71091350579489 0 0 0
185 1 26.797678478169857 15.341865225764291 7.117462894541389 0 0 0
1907 1 28.849852180773322 14.694315149397429 9.081857728825446 0 0 0
635 1 30.836529272367326 15.014173490321873 7.340980939751108 0 0 0
927 1 29.54782507608799 17.316795117115053 6.830691576486877 0 0 0
922 1 27.517937355629254 16.909840017573927 9.067907505902571 0 0 0
1192 1 29.558657239608934 19.33243937980433 9.180505602813598 -1 0 0
679 1 31.104351748680752 16.908701508602388 9.243817483689828 -1 0 0
483 1 27.423545990637972 19.22870847501314 6.488105319803884 -1 0 0
381 1 31.65226147445758 19.04888846833383 6.298905286769575 0 0 0
1245 1 31.13514582724537 18.985646949472084 11.466032611811677 0 0 0
988 1 27.31968236141396 18.7348073392809 11.03216702500696 0 0 0
2050 1 28.880905938951347 16.2853345888882 10.91466681409049 -1 0 0
925 1 2.6693509217525837 21.14068596733972 8.909528382566638 1 0 0
389 1 4.3814681530461295 21.067325054574333 6.702660072949466 0 0 0
1954 1 4.248924539725056 23.12890172393107 9.503659025941314 0 0 0
256 1 2.2824450680912007 23.311247820250856 7.1562659567889995 1 0 0
1452 1 3.8445029233482355 25.511644748464324 6.85715548775921 0 0 0
711 1 2.4865437310055083 25.67301940960284 9.166155528465433 0 0 0
977 1 0.39205014191306314 25.276554104062697 6.623705874272508 1 0 0
1837 1 0.6182404858388837 23.076308631320977 9.188939112507 0 -1 0
1368 1 -0.013618998125873666 21.15536959209059 10.821688258016495 1 0 0
1154 1 4.5520660453742465 25.405832218937 11.043346491428043 0 0 0
736 1 0.47624407464512536 21.164277979506906 7.0954061828484125 1 0 0
1769 1 0.512551928608769 25.444967369956604 10.87248736320258 0 0 0
934 1 4.2822695803928585 20.627511803733693 11.779805921924748 0 0 0
631 1 2.173792865595374 23.067088463211004 11.596300389185757 0 0 0
1178 1 5.980001703709161 21.044737505609866 9.1229739789569 0 0 0
1488 1 6.453183665921502 22.968155331248504 6.663219697785688 0 0 0
1738 1 6.409236566134485 25.466626916952844 8.687399601778923 0 0 0
1690 1 10.126118746491855 20.974063279000134 9.211707766859199 0 0 0
390 1 10.271343388660618 22.61929778376865 7.000232611215257 0 0 0
944 1 8.228397555060006 20.840712158967428 7.515841338349261 0 0 0
420 1 8.312484459480943 23.10365798454592 8.96981748613227 0 0 0
678 1 8.454755023889978 24.951768687625474 6.911280536104357 0 0 0
461 1 10.100845795436795 25.30010290772286 9.260447714863988 0 0 0
670 1 10.0920844154782 23.065551707793247 11.261001328151822 0 0 0
741 1 6.5607415540527985 23.416328550418378 11.036362499525714 0 0 0
651 1 8.338409838640622 25.668006995709916 10.98995632178122 0 0 0
175 1 12.527475725598066 26.074887711800944 10.932817632748396 0 0 0
1407 1 12.78797841108588 21.37523032350231 10.754030201332235 0 0 0
1255 1 12.472936653231583 21.01799259441144 7.182274886193863 0 0 0
184 1 12.254882104840686 23.700796459151885 9.475328880953885 0 0 0
1687 1 12.186347047490493 25.407712708484734 6.930222992072355 0 0 0
408 1 18.975026820747054 21.244274989367216 4.853039181868332 0 0 0
645 1 14.502947801367412 21.11989295769462 9.081021328236467 0 0 0
774 1 14.210014166098524 25.66270060015344 8.54249051270881 0 -1 0
81 1 16.916068408170386 21.103281674570724 7.450209368874279 0 0 0
969 1 14.705915953494564 23.403556319029917 7.069914923925205 0 0 0
1788 1 16.989265083632965 25.22550924329793 6.558854222034095 0 0 0
718 1 18.96487868951712 23.343442758846848 6.860683912767303 0 0 0
740 1 19.282229030253824 21.00707725290213 8.82829298585083 -1 0 0
1686 1 18.363774090111296 25.711998766730193 8.621740378060347 0 0 0
763 1 16.881749790337636 23.33782053936155 8.782715156436812 0 0 0
528 1 25.69892999953062 21.53666164226811 6.382307495372877 0 -1 0
1536 1 21.167675648861852 25.688621604469997 7.198528428194003 0 0 0
1466 1 21.147310978287397 21.86019944480298 6.712291227873474 0 0 0
1158 1 23.286801986318252 23.490392761947877 6.700256715355114 -1 0 0
1114 1 22.863810462753943 21.62303527771486 8.891184465532376 0 0 0
646 1 23.707361131754997 24.855043577467267 8.817388291111465 0 0 0
1457 1 20.62708760457778 23.857507126649512 8.755027942428274 0 0 0
1186 1 25.41919932689882 25.38048458383523 7.065926362729406 -1 0 0
190 1 25.45631491183653 22.79461725478246 9.088837305270005 0 0 0
322 1 20.371006586051138 26.04367216752443 10.826986438268486 -1 -1 0
836 1 25.59637532268771 24.906046313393123 11.222128657608517 -1 -1 0
1309 1 25.807449927712796 21.033325111688114 11.116929421480265 0 -1 0
1440 1 21.004457900563644 21.134480834345034 10.948810527511487 0 0 0
1593 1 27.508397083466715 25.234957074974396 8.7140606024677 0 -1 0
327 1 29.71193235279687 21.114672728243644 6.771489348497579 -1 -1 0
824 1 27.280874139254415 21.130312811661863 8.775076004377595 0 0 0
1110 1 30.088905840703344 23.271062262382102 8.763319034115064 0 0 0
902 1 31.933611042187348 20.933310558722795 8.758650620115514 -1 0 0
372 1 31.68386961396352 23.207893993277622 6.528358046925382 0 0 0
761 1 29.719343312825764 25.444330588914482 6.935156465614926 0 0 0
1745 1 27.99165033533431 23.158320568729454 7.027973607140849 0 0 0
827 1 31.731027731196267 25.22528418819553 9.197075435667074 0 -1 0
1261 1 27.783644324478306 23.38276665650828 10.628439010311958 -1 0 0
531 1 30.027218988711944 25.217797679114113 11.538439349233933 0 -1 0
683 1 31.813661390904976 23.24393583901718 11.075044917873857 -1 0 0
861 1 29.788225375306915 21.283966840459268 10.881714697639199 0 0 0
2295 1 5.606200392226454 32.93028317902116 11.94467741209957 0 0 0
705 1 0.27013577065672434 27.322494235614602 9.005384183015032 0 0 0
838 1 4.548912251660918 27.174817809773863 8.871023232972094 0 -1 0
51 1 1.9764613107193054 27.619658112757403 6.84288855653985 1 -1 0
783 1 2.066106611361418 31.392340064036816 6.965756145334226 0 -1 0
677 1 3.840799707756905 29.426946583099404 6.758828719140913 0 0 0
1483 1 4.220016132361068 31.56760799811078 8.68357765691206 0 0 0
422 1 2.097793536044973 29.552963494630653 9.157332520184664 0 0 0
309 1 0.14727004316866726 31.32159158672221 9.105156934638824 1 -1 0
586 1 0.11528018328589713 29.493776182802524 6.946925489729377 0 0 0
487 1 6.028429835123121 29.682194930641774 8.238711629825858 0 0 0
364 1 6.628122366827801 27.386163166260488 6.8769394703552456 0 0 0
482 1 4.63002087886767 29.426020637771238 10.685754306731589 0 0 0
1337 1 6.341283546570342 31.753609532899027 6.539988194396752 1 -1 0
1923 1 8.131434846791727 27.847465351380382 9.441033753019294 0 -1 0
941 1 10.197308194001799 27.160564259099957 7.00898404176426 0 0 0
1298 1 8.462571447117874 29.500401636138157 6.8763212239828615 0 -1 0
365 1 10.724378188599818 31.583038578368736 7.433814273348037 0 0 0
1541 1 8.609232816455581 31.577069868611677 8.927968641767148 0 -1 0
1831 1 10.66931632906594 29.564407819190485 9.298927144356865 0 -1 0
664 1 12.654485686940548 29.53635687422724 7.2708710571336885 0 0 0
1193 1 12.242066988932379 27.637227062957358 8.774195680350152 -1 0 0
642 1 10.687228760757566 27.77629271138651 10.991865100786049 0 0 0
320 1 7.9383524022321765 29.223530274717877 11.929343544033227 1 -1 0
1079 1 6.313394881822225 27.405069299349243 11.398525229456238 1 -1 0
1041 1 12.367549866453114 31.83034367664552 9.587078060582291 0 -1 0
593 1 10.35662791082832 31.506001266696487 11.221329143094183 0 -1 0
1242 1 6.534242498300072 30.988266695991868 10.481149450067628 1 0 0
623 1 17.161301605590687 27.568939327051247 4.47227472340515 0 0 0
1467 1 18.762898580711727 30.098132049180485 4.542160493392042 0 0 0
1175 1 15.241557697484003 27.3028483265327 6.35823226579638 0 0 0
601 1 17.03406231850982 27.900400980505736 8.478108425570005 0 0 0
265 1 14.52680817854466 31.420078452967765 6.972388841471403 0 -1 0
436 1 14.617137878775024 28.771069238352837 8.945878233994756 0 0 0
465 1 16.522814065905234 29.446534064077593 6.399447105420629 0 0 0
1429 1 16.4686043195551 31.291251412867368 8.791756472587291 0 0 0
1265 1 19.090301527557514 27.981490275984022 6.407318496736633 0 0 0
569 1 18.97426589852971 29.947388067098466 8.333983774470306 0 -1 0
1203 1 19.23604174109098 31.8919492693637 6.666225334152941 0 0 0
2241 1 15.008443579572656 27.36093145303558 11.403855416897736 0 0 0
632 1 18.309371363725422 27.845073942480486 10.978875679835683 0 -1 0
931 1 25.27236691056484 27.14428719564648 9.043448399577024 -1 0 0
1111 1 20.625710998329694 27.875480249694654 8.863604817533288 0 0 0
1250 1 23.09631338789387 27.55922232422743 7.264899847719214 -1 0 0
1398 1 23.004383077028425 29.44488122308835 9.098353981649822 0 -1 0
402 1 21.166273547064304 31.723170157343578 9.063519740157343 0 -1 0
1019 1 23.718681357240378 31.252396778374003 7.230700892362982 0 0 0
946 1 21.316662471247476 29.719481356490927 6.792407055188149 0 0 0
263 1 25.578908874528885 29.336024302211 6.9084289659531395 -1 -1 0
275 1 25.46018183026191 31.22558742523807 9.216387225800403 0 -1 0
32 1 24.94996673327401 29.196707267550842 10.875062138192378 0 -1 0
1447 1 22.94969561578307 31.445055618724783 11.053796380782787 -1 -1 0
421 1 29.489722231451026 27.484531701696845 4.8398478505453255 -1 0 0
965 1 27.872353388402686 29.587813267425954 5.323446572324401 -1 0 0
1600 1 27.320071984578117 -0.10526792152266702 10.010743028810056 0 0 0
282 1 29.39592413844882 31.85743284639671 5.2383532129068815 0 -1 0
1225 1 27.932343108537957 27.0281173182569 11.231311249644575 -1 0 0
921 1 29.971823878039675 27.216865853523394 9.428395970172797 0 0 0
438 1 27.816899153050926 27.227949211117554 6.775394700052419 0 0 0
1566 1 31.792737826678778 27.369091423364807 6.934957601662071 0 -1 0
283 1 31.86373302782306 31.616881478973262 7.2873262818062905 0 -1 0
1139 1 29.744278879692505 31.438253968692848 9.406669048436079 0 -1 0
1465 1 27.54321981198543 29.20722967611523 9.22719373379835 0 0 0
1246 1 30.113266776543107 29.258364131390557 7.368413620095682 0 0 0
1224 1 27.740850275575323 31.24360560812839 7.626531521751864 -1 0 0
1446 1 31.932127729966297 29.24601115083943 9.432448532613899 -1 0 0
434 1 27.743784804033556 30.94690215187109 11.255721629287669 0 0 0
1307 1 32.147483978134 27.26299433357626 11.396364790030695 0 -1 0
1308 1 30.161037302913837 29.208225933037784 11.472890223765424 0 -1 0
1205 1 1.6114025720152105 5.077752337386767 11.6928911198363 0 0 0
1551 1 4.130643581688321 3.17768299364015 13.739902902353698 1 0 0
579 1 3.5062838105835974 2.5271112960184694 16.446618884193427 0 0 0
1700 1 1.7427928504250212 3.9429455065194734 14.869380210469428 0 0 0
1173 1 5.31395047137293 0.6355799652144922 16.73734279279985 0 1 0
188 1 1.0975777192445761 2.3374140105428 12.684690746498713 1 1 0
2233 1 2.657133805203088 7.052512390550135 16.015404276959163 0 1 0
371 1 1.2797701989022319 3.8856354043648156 18.107582401566827 0 0 0
656 1 4.102588236986087 4.845122458458669 17.50451984559772 0 0 0
962 1 3.460950023541831 5.594024806441996 13.779765324627837 0 1 0
1369 1 5.280355530262212 2.6672230342163212 18.47697254671826 1 0 0
1300 1 5.474025906194969 5.730462168649564 15.450561655047272 0 0 0
2281 1 32.9180606690696 3.053953584186192 16.216640063728843 -1 1 0
786 1 12.25277495493827 0.397247421712882 11.469459172794256 0 0 0
972 1 13.012582891466165 4.664143604751358 11.27467399555703 0 1 0
1341 1 6.388494534391849 4.492610119840473 13.044008980632315 0 0 0
439 1 7.813929773926676 2.586929802885038 17.61837165778833 0 1 0
1908 1 10.800483789272597 4.74807962189274 13.314427150916433 0 0 0
1981 1 11.975579024363977 3.8727042977753063 15.61731352299197 1 1 0
1112 1 10.680769938069165 1.5873522156194302 15.736796064511363 0 1 0
993 1 6.278449283619393 3.1020571996350528 15.503413973178125 0 1 0
1252 1 12.432892256693643 2.3545801072002583 13.218653926186613 0 1 0
1485 1 9.700673759342719 0.7944767952237451 13.322410622514937 0 1 0
1956 1 8.922724198191402 3.4082453235652874 14.851560768230778 0 0 0
368 1 8.025291802412912 0.32443798541670116 16.20433720394852 0 1 0
2213 1 8.17415472731124 6.226979818902186 13.703494957609463 0 1 0
511 1 9.834662929629589 1.2467767563482954 18.273519834115355 0 1 0
1844 1 13.009965533467398 6.1695520379187005 13.49346256763854 0 0 0
2097 1 10.138794456843854 5.909388288730395 15.501171922323548 0 0 0
1802 1 12.812620929270059 32.96986826684668 15.597045933778437 -1 0 0
391 1 12.793727077016879 1.6786130255981084 17.650273639664878 0 1 0
787 1 14.76305500427735 2.266188051770214 11.406617466533433 0 0 0
324 1 14.997715130907107 6.624058991814124 11.051641141743698 -1 0 0
1481 1 14.406094336531721 4.055802663179071 16.870752287781258 0 1 0
727 1 14.331199091921441 1.8794336691862876 15.279597472565838 0 1 0
1455 1 14.867294896380507 4.234239800857149 13.360614874296049 1 0 0
1773 1 17.06089496111258 -0.23997129736097378 15.426796627457282 0 0 0
1713 1 16.70510146239895 2.0403564387954685 13.480255713674406 0 0 0
1268 1 18.696000511083582 2.283217801705803 15.319289467489153 0 1 0
538 1 18.90792911190821 3.8017349244601246 13.058257075131243 0 0 0
513 1 18.392623909182465 3.6702799582541616 17.908192827653277 -1 0 0
1888 1 16.737313126878963 4.596873778884677 15.621994286172193 0 0 0
166 1 14.439213395171988 0.32288557060035605 13.261223527122867 0 1 0
2012 1 19.068642637847923 -0.03871212591533737 12.817694970262837 0 1 0
1760 1 17.208795658675257 6.187007147912657 13.085860276884043 0 1 0
2499 1 14.682977426476583 6.447942091190353 15.516321190072832 0 1 0
1965 1 16.370920514690123 6.448360250904113 17.780332341611555 0 0 0
1085 1 21.353261725370874 2.871502140604031 13.192050650973563 0 0 0
1479 1 25.230063438617446 2.3734535187780703 12.770443674672007 -1 0 0
348 1 23.198813756174275 4.647724980629651 12.888280767337568 0 0 0
1658 1 21.736050862232332 4.341747179265846 15.507948583934413 0 0 0
261 1 26.31392654241123 3.731444620135755 14.985249273808046 -1 0 0
860 1 25.773382951784164 0.5987938324646095 16.034997510220972 0 0 0
1034 1 23.135906201952448 1.733045948267529 15.272456858580998 -1 0 0
1351 1 24.2189409062129 5.552638406484539 16.167447455640037 -1 0 0
852 1 20.560894649168496 2.061814494746333 17.231387985797728 0 0 0
147 1 19.241698018685025 5.197503907592044 15.766740037665336 0 0 0
2421 1 25.308698805627326 6.137710511869196 12.939450020685534 0 0 0
2823 1 20.624664478495898 0.3212305596846413 15.102835261880497 -1 0 0
1661 1 32.02499839567281 2.111938809491903 11.463589409408039 0 0 0
1135 1 29.46234146770885 -0.19219322017987187 11.551680812246028 -1 0 0
122 1 27.47497193481794 4.714716971439049 12.71557950157929 0 0 0
1943 1 30.46604305393283 1.4633895833650068 16.059741576425147 -1 0 0
1093 1 30.857717047550047 3.3471422652661227 13.889521224751077 -1 0 0
995 1 32.72554489789894 4.891509401934359 13.301116670109323 -1 1 0
1381 1 32.14302035518499 0.6240237392446055 13.657206169190118 -1 0 0
480 1 27.906726201831386 2.4080955307128598 13.757868404309376 1 1 0
1554 1 1.2508116286765492 0.5952583823239621 14.909559522357238 1 0 0
2034 1 29.62597734888836 6.281615994232988 13.041988762472432 -1 1 0
964 1 27.66707399492194 2.305825432291625 16.817238727696722 -1 0 0
1057 1 28.804397449972402 4.337749458222882 15.40598423538278 -1 0 0
1096 1 29.864735793993972 3.234213721806212 18.018114154695326 -1 0 0
1131 1 26.88300893401095 4.535089386388839 18.228417662662032 -1 0 0
2526 1 26.701731166609157 6.073379405629807 15.613526280759887 0 0 0
1408 1 30.862728001034036 0.7624684695576762 18.901347341679674 0 0 0
1779 1 28.651040983074218 6.228376110272372 17.195977767564877 -1 0 0
49 1 0.8210432770156273 6.898097389720203 14.076352654083925 0 0 0
1951 1 -0.01521353415634988 5.889994366886351 16.959735143594838 1 0 0
1932 1 2.5543572590824257 8.373902339032565 12.048609412504389 0 1 0
1216 1 5.401909659075151 9.199743236689809 16.404880405906724 1 0 0
2596 1 0.0881630461450111 9.638907804874439 13.264681096827877 0 0 0
2296 1 4.279435566847807 10.89041997984907 13.221042388647595 1 0 0
353 1 32.341879969189065 11.786402049540904 14.873090148727824 -1 0 0
1983 1 4.841953577660497 7.89581660911306 14.034898832567638 1 0 0
1124 1 3.8914074135846395 11.653745247810543 15.829771082984823 -1 0 0
2145 1 1.5871890498238792 12.133124904234483 13.55480824271809 0 0 0
1504 1 6.598216742846102 12.059113646767429 15.417561207141594 0 0 0
1614 1 2.312903937057627 9.595842705469183 14.808162892639672 0 0 0
1071 1 5.1331037396942 11.221499606780103 18.23259085189039 0 -1 0
595 1 10.518457519015582 6.522498582817028 11.618020277273832 0 0 0
649 1 10.196900166143134 9.87436324049949 11.521719501414662 0 0 0
1043 1 12.795423312214536 8.195583883784774 11.693290127685026 0 0 0
810 1 8.4306905467932 10.349588736861481 16.44024041710696 0 0 0
2239 1 7.727480140851938 7.934881686956914 16.80827284440974 1 0 0
1038 1 7.397886417565948 9.539832062789717 14.219642156090854 0 0 0
1605 1 11.16652992340422 11.21735362464872 16.17464433303368 -1 0 0
884 1 9.655139734086212 10.443580417044782 13.878100710961746 0 0 0
841 1 12.878204051721646 8.528716639138365 15.277139834598199 0 0 0
1302 1 10.540198371761427 8.016841529534974 13.861197020535023 0 0 0
1902 1 10.459524297136316 7.973059141682579 16.910918149955258 0 0 0
1898 1 11.434452714891338 13.067214748084295 13.999701800105282 0 0 0
1588 1 13.745212468532644 12.052221633019991 15.541455089231883 0 0 0
1817 1 12.390572069900253 6.0824827687536285 17.635832438128702 0 0 0
1267 1 12.77854531838748 10.352327895770856 13.487182649001122 0 1 0
1828 1 15.215913530442775 8.161328103301042 13.397025623949034 -1 0 0
1174 1 17.497212250874732 7.633229444759139 15.379127771439713 0 0 0
1947 1 15.365520057217786 9.855053669107102 15.388171572423401 1 0 0
1183 1 17.090985352630888 10.168712948716422 13.357917480427831 1 0 0
2122 1 19.236305597698674 8.14777218165705 13.008413248416085 0 0 0
839 1 18.611641691281246 10.688640605373541 15.401945999316794 0 0 0
2083 1 15.090697471954536 12.03081560975506 13.057161333652706 -1 0 0
918 1 19.22617148560261 12.356697591675648 13.21446235441489 0 0 0
1820 1 15.141439682337278 12.576818846505017 18.226593454040447 0 0 0
1894 1 16.691544093163845 9.075102487442772 17.49494352806886 -1 -1 0
1924 1 14.328439633513783 7.881390615677074 18.299734790606596 0 0 0
1952 1 19.931853553245872 8.112624317283501 16.130857106388074 0 0 0
935 1 16.5842662429933 12.149134096026986 15.860124992859935 0 0 0
863 1 21.99545392289463 7.2573820904617685 15.026000909375295 0 0 0
1885 1 20.516834110716527 5.9925612137792905 13.336448431949252 0 0 0
849 1 21.32789767494808 10.067948786400303 13.027107475218358 0 0 0
945 1 25.072496973169923 8.162564224675469 14.905844009894235 0 0 0
1042 1 23.451043123158684 8.093604665690727 12.791628825789177 0 -1 0
544 1 22.89866239951802 12.391915863484218 13.635945440374227 0 -1 0
1596 1 23.565120134044175 9.940111943154175 15.305825114347046 0 0 0
1343 1 21.358729080949246 11.406421323168713 15.609144474887175 0 0 0
1520 1 25.01767069545728 10.66860667209907 17.722947337170737 -1 0 0
1578 1 25.25498474693858 10.622400616150008 12.956811792803114 0 0 0
2039 1 25.089595787874355 12.28958570832434 15.318664996595475 -1 0 0
2635 1 24.14280831044042 7.936950791968114 17.24696299217671 0 0 0
1053 1 31.72656587540085 6.88484990432742 11.047731617834918 0 0 0
1336 1 30.83522547200144 5.68814399634434 15.64315631658736 0 -1 0
2666 1 27.401370791287196 8.625248594511843 17.700009141947028 -1 0 0
758 1 -0.08953987393060675 8.530474470307887 16.110169251106125 1 1 0
1370 1 27.25743229869082 8.679904612175902 13.094237089790724 0 0 0
837 1 31.80400122458162 7.9830043312391314 13.787277744251114 -1 0 0
1449 1 31.237994292464172 12.934989612480264 12.819422209420408 -1 0 0
1517 1 28.9654201936701 8.047822166405597 15.22527645648685 -1 1 0
1099 1 29.880961942931158 10.13403348257437 13.508936369378986 -1 0 0
2214 1 29.713979821459723 10.032930231326624 16.509246041988888 -1 0 0
1120 1 27.075215008849764 10.282846224033287 15.672430955847604 0 0 0
1759 1 27.546506180707166 12.004320829991109 13.634896533703007 0 0 0
1906 1 29.874902499135057 9.56355955910692 19.344886932058518 -1 1 0
2521 1 27.47503168498072 12.87578569632633 17.167239393531993 0 0 0
828 1 -0.22441513513060543 19.22981961179283 13.066679491791518 1 0 0
1472 1 4.184327058007412 16.629770444134216 15.208790709595432 1 0 0
1510 1 7.237642198553946 12.696251982952804 13.03045200833754 0 1 0
1363 1 4.565598889558829 18.974667531297253 14.045851728607056 0 0 0
2225 1 1.6301236113167596 17.01332449773321 13.496167559925746 1 0 0
2681 1 1.9236122199288226 18.919169120003648 15.910442712980942 1 0 0
680 1 4.621519376690866 14.637524735021351 13.08128627338977 0 0 0
1940 1 -0.2507268729775163 17.64404311256224 15.911433620869031 1 1 0
405 1 2.715917225444509 16.78296068918334 17.559519277796166 0 0 0
1639 1 3.094290188807023 14.100927050053288 15.202871770845192 1 0 0
804 1 -0.09864006557097883 14.499585878428448 13.673377151424122 0 -1 0
1629 1 6.1331246289803305 18.56380411022583 16.055192277446363 1 0 0
1764 1 4.787174299832968 14.101632433872442 17.392429847961402 0 1 0
976 1 0.35173597301517134 19.1326163622342 18.408230431889887 0 0 0
2561 1 6.430488157854193 14.910305725288445 15.199794939154048 0 -1 0
1040 1 6.451144832605427 17.09242582083578 13.29756296045692 0 0 0
355 1 8.916209478283106 13.008946324711774 15.351284720648444 0 0 0
1086 1 8.586571222261192 17.044481105210394 15.5982761453078 1 0 0
388 1 8.872111929460317 14.790773281066029 13.171797460896872 0 0 0
1512 1 10.937393998028435 18.37282287195665 14.810546125544068 0 1 0
2360 1 11.365885867946291 16.6640217366738 12.886123778196701 1 0 0
413 1 8.671467147976296 18.80089327074808 13.379994844270891 1 0 0
1677 1 10.969478912880268 15.574591596818735 15.02458646999115 0 0 0
2397 1 7.847173821700846 12.612642984978999 17.817296640459777 1 0 0
1656 1 13.468396053715882 14.544012013931209 13.247016207841082 0 0 0
23 1 13.463688341287492 16.468306160007867 11.131378761243383 0 0 0
974 1 15.16324441662199 18.759619762854044 11.490387752343326 0 0 0
2114 1 18.43927978261729 13.605007216489406 17.73178076991983 0 0 0
1331 1 13.399868937787893 17.31163689069461 15.023215768045356 0 0 0
1883 1 12.47748919580503 15.409919033961023 16.895494171744822 0 0 0
1164 1 14.805209454621092 14.769286220102428 15.536958907277969 0 0 0
1731 1 17.52295813461913 14.758341264647841 15.5467111705852 0 0 0
662 1 17.352264613564092 18.994046453050014 13.559286552036049 0 0 0
1613 1 16.4745165597853 17.807100328639606 16.390779769399657 0 0 0
1950 1 15.842003378181172 16.746059780690143 14.064763739480371 0 0 0
1580 1 16.83802515578506 14.044008179584315 13.260826224438212 0 0 0
1473 1 20.07739191099816 18.68953877979418 14.753180413990384 -1 0 0
2326 1 18.867562742922157 16.632465513723485 17.312540611069682 0 0 0
1347 1 18.917630390513498 16.471916739929807 14.21876081376027 0 0 0
982 1 20.078826822804093 13.637969284495252 15.308579601248042 0 1 0
1726 1 21.548564585407703 20.31165355129521 13.236572357509747 0 0 0
834 1 23.186929357858588 14.446752877234662 15.876555807014519 -1 0 0
351 1 21.205536837840665 14.562013757417773 13.549958304033677 0 0 0
1729 1 24.58199411278867 14.627267518260885 12.985110105414547 -1 0 0
1402 1 22.771917551717394 17.19066897789321 13.341261350388407 0 0 0
624 1 24.73420693191148 16.889679680655377 14.823537910002537 -1 1 0
2249 1 23.103763451629895 19.254400288096427 15.54246174941949 -1 0 0
1499 1 24.200449050694832 19.275672120160877 12.822206915656142 0 0 0
476 1 21.442833447267333 16.61264316189946 15.77981723758961 0 0 0
2230 1 26.85272908272908 19.179218590240218 15.953027423940924 0 0 0
789 1 25.23093786452413 14.443746684634014 17.611249845641048 0 1 0
1424 1 23.570769875069086 17.31150131049367 17.143582304672137 0 0 0
2020 1 20.81477850677076 14.785038978378754 17.719342598706255 -1 0 0
1133 1 27.113648920278795 14.452127512891275 11.677624343475015 -1 0 0
1095 1 31.259727447423142 14.792576131536446 10.88400820303567 -1 0 0
576 1 32.56735235485158 13.522865556114537 17.54530922230433 0 0 0
1090 1 30.944953756705 15.124334993749356 15.41392991012493 -1 -1 0
914 1 31.290647718535666 16.7353908524565 13.117894084074296 0 0 0
892 1 27.334564369085168 16.78965455599659 13.224405248404592 0 0 0
2953 1 29.467433139462937 12.69483717068283 15.139290579988453 -1 -1 0
2707 1 26.791289868602735 14.622605321132845 14.735210090428927 0 0 0
2289 1 29.29592054428385 18.774624485385875 13.266244916142142 -1 0 0
1477 1 29.220153399051178 14.805360881542429 13.162385948709554 -1 0 0
2364 1 28.96442756725084 17.205844654568214 15.375217566593808 0 0 0
2346 1 31.180269547099478 19.145178367867093 14.981323240423414 0 0 0
3006 1 29.42807174976316 19.062608665981408 17.62893461709464 0 1 0
3 1 0.050530623994227995 20.88043932642823 15.108839849519342 0 -1 0
684 1 2.211389968511109 20.629020123226567 13.39068207223863 0 0 0
835 1 4.255756390635108 22.69035516066421 13.266322023311558 0 -1 0
2528 1 0.399669859394939 23.700600192396315 13.453221506405246 1 0 0
2118 1 2.1402647582068193 22.977850274857065 15.457738239032528 0 0 0
1026 1 2.825217336445529 25.265066681352746 12.966976022027897 0 0 0
1982 1 4.0842970797312645 20.590804355040078 15.971454893329925 1 0 0
1037 1 1.5314915051050424 21.45957539370935 17.69450348873599 1 -1 0
1839 1 4.417907723459008 24.796160482852745 14.953488716588803 0 0 0
1116 1 32.94405259779553 23.146355368774973 18.341674872491247 -1 0 0
1355 1 2.8177705208275112 27.142293057085705 15.349501449173392 0 -1 0
1991 1 0.6318479485038674 26.593651224636364 13.928703606056688 0 0 0
1210 1 2.8826442176224902 25.34081948424586 17.412102920344385 0 -1 0
1864 1 6.6220588246637915 23.947202548260076 17.598526677500157 0 -1 0
830 1 6.800286314469421 21.081058991284344 17.106493141157337 1 -1 0
1191 1 8.217418256479261 20.953835944626668 11.203153525357248 0 0 0
2404 1 10.687202152703621 20.735289060451183 13.25109005095253 0 0 0
967 1 6.756378675914856 20.632153649326252 13.505938890783355 0 0 0
1123 1 8.79980578556233 20.112614654494138 16.03713528447351 0 0 0
867 1 6.363064710886372 25.3575324007194 13.449354205895636 0 0 0
954 1 10.58106794844061 25.728285762759576 12.992593290322812 1 0 0
460 1 10.504550834412566 23.213666904289376 14.593263381476435 0 0 0
2747 1 6.291488295695066 22.822478673266865 14.904897592894233 0 0 0
1231 1 8.562547842933103 25.163105855035507 15.296212402036039 0 0 0
1367 1 8.290251848464518 22.96588769160918 13.231959896087224 0 0 0
1125 1 11.305848335384908 21.507489801736096 16.351040731019683 0 0 0
1352 1 12.742169277623628 24.44359620071883 15.410787694979872 -1 0 0
1692 1 12.669078950285103 23.660114189227855 12.580699503379435 0 0 0
1752 1 13.327275417517173 18.935405859194567 13.257354074762684 0 0 0
1059 1 11.040523617194479 25.617666123846462 16.92731472383445 -1 -1 0
140 1 14.605253510480782 23.92935800151668 10.565982736891106 0 0 0
386 1 18.939943445284914 23.24072986103181 10.75851499467444 -1 0 0
2402 1 16.913248121162898 25.368484315020137 10.918507928067902 0 0 0
1515 1 17.201773939148982 21.26520350090755 10.550676969836854 0 1 0
881 1 18.6102104889413 23.51294709045537 15.612491742517529 -1 0 0
1926 1 15.013974139012532 21.23421750064486 12.485921545395035 0 0 0
951 1 14.620251440169762 25.298376102583674 13.030282717260583 0 0 0
1117 1 18.394731278493662 21.150672922545635 13.035966213352294 0 0 0
1240 1 16.337617990382636 21.065615420925926 15.432757241829828 0 0 0
1366 1 16.63904772872937 23.395390488984685 13.09982281246188 0 0 0
2211 1 13.439305497978523 21.990999150040146 14.565646671360422 0 0 0
1801 1 18.653542686683352 24.963849798310484 13.2944786328385 0 -1 0
1182 1 17.15139128537611 25.97895360114392 16.127333551334104 0 -1 0
1118 1 14.332339708801324 26.517509451669092 15.557135182266217 0 -1 0
1128 1 16.117060152241713 26.517665288210292 18.292279762505217 -1 -1 0
707 1 13.74739352776681 19.681795465434842 16.271304719868397 -1 0 0
518 1 15.657404355428172 24.013404496663966 15.316191300733298 0 -1 0
1288 1 22.149337444931017 23.631064683203657 10.690165101127667 0 -1 0
2147 1 23.794546726800366 20.07509650104563 18.232902385614295 -1 -1 0
797 1 20.78726773353903 23.287756752598742 13.044949452831224 0 -1 0
1119 1 19.565468674794083 20.99147435247345 15.310629459233814 0 0 0
1949 1 23.749462053655986 22.162588208097418 12.40676848301369 0 0 0
919 1 22.546560588299908 22.362217845481897 14.96429423116006 0 0 0
2271 1 26.209239694038367 22.970768103751084 12.8439420110477 0 0 0
2227 1 24.861480812272834 21.05821217645382 15.688091452273913 0 0 0
2634 1 24.64176398448994 24.14805651676108 14.671997757886949 -1 -1 0
1916 1 22.785812691514394 25.017429513212353 13.016994226567618 0 0 0
1011 1 21.701752737353974 21.184099257279325 17.246022210381966 0 0 0
2581 1 0.13076915397658512 25.054852835313433 16.190902418859235 1 -1 0
1685 1 27.32285407485121 21.770847041091255 14.867606917764656 0 0 0
2892 1 31.602461453432486 21.203539775872656 13.214030714400169 -1 0 0
1190 1 32.02908442777647 23.170295277887273 15.46314938622309 -1 -1 0
1799 1 26.728384530474777 19.83029328374386 13.524922394855986 -1 -1 0
639 1 31.42215645117933 25.366989112310357 13.796108797870744 0 0 0
1784 1 29.765489953745835 21.58087419644391 15.780375823904004 0 0 0
1030 1 29.155794121074294 23.245555210295596 13.234884496757797 -1 -1 0
2042 1 27.06833401795448 25.34497308570679 13.572243175456194 0 0 0
627 1 31.924430514014315 20.61757057626746 17.191861383607034 0 -1 0
1395 1 31.387696612675345 27.308477330424438 15.714284038699217 0 -1 0
1691 1 29.216098238390156 24.742508334953897 15.288485317614795 0 0 0
1404 1 28.53974428945214 22.86247939191831 17.561632129139394 0 0 0
1318 1 26.804722736031934 25.34302977587025 16.674928399210362 -1 -1 0
1000 1 2.3256124406779866 27.530640132922095 11.30513419716757 0 0 0
953 1 0.3130052055615077 29.590037305544982 11.748640037943453 1 0 0
1313 1 3.754345112952256 0.5284282722449367 13.900314173634362 0 0 0
1400 1 4.628387846193587 27.62580945793737 13.400343675253383 1 0 0
2135 1 3.1241127988212303 31.82394366406216 11.287930594127447 1 -1 0
1148 1 3.7086373347209203 31.74409970432883 15.45681503059982 1 0 0
1486 1 5.841383376207122 31.429528668571376 18.15624127136422 0 0 0
929 1 0.6510723248573371 31.78353408736428 13.233243654236087 -1 0 0
2258 1 5.000748796498288 29.27071709806585 16.331261992228114 1 0 0
777 1 6.411213810635914 31.956246551215266 15.102568231237473 0 -1 0
1967 1 1.0614964546176269 29.48453573292126 15.196586756121786 1 0 0
1266 1 2.9528914585265724 29.638142361963762 17.864832388456016 1 0 0
1919 1 3.151956367310366 29.38819066507247 13.17567770200611 0 -1 0
880 1 5.631797171775317 30.336611316370035 13.191958603485228 0 0 0
1413 1 0.6342907342378631 1.1800734695972959 17.53338919771114 0 0 0
1953 1 1.1271951777612192 31.782616232897535 17.10347077117873 0 0 0
1403 1 12.672947710835832 29.67951141342031 11.387904912832726 0 -1 0
237 1 11.055503238967468 27.534147510809998 15.552530011941235 0 0 0
1022 1 6.866659621638507 1.3100927379687153 13.588079459656164 1 1 0
1156 1 8.214400744264788 27.337613156365485 13.814025230106687 -1 0 0
1822 1 8.999086843969785 27.713326341616213 16.850209112085412 0 -1 0
1532 1 7.889297858839391 29.782380390278636 15.43853972848949 1 0 0
1829 1 8.096645136684783 31.800004633778684 12.730612259616162 0 -1 0
2215 1 10.694439971856223 29.66645826584485 13.711015219670022 0 0 0
1046 1 6.3628140676064175 26.789993509678037 15.632415191119895 0 -1 0
2905 1 9.80013385841542 32.10385908167188 14.942207274676155 1 0 0
1018 1 13.014651917397083 27.52149022299552 13.319886490133875 0 0 0
334 1 8.798894094021012 31.415289433610667 17.831022380402143 0 -1 0
212 1 12.231913805824398 31.617727875030315 13.32916053831123 0 0 0
1525 1 12.961623127361719 29.68302980869586 15.174544187560745 0 0 0
762 1 14.597045889242256 31.602400575221807 11.583539398968245 0 0 0
692 1 18.953421703334946 31.728088787207504 10.562763777875833 0 0 0
894 1 16.81973143925002 29.970275396791447 11.201086565535979 1 -1 0
2370 1 19.019304494119726 31.08716131588565 15.554875995913154 -1 -1 0
618 1 17.036564203908828 31.437898560449565 13.239859989594223 0 -1 0
1827 1 17.47950080091144 28.676465081467978 15.521417360301157 -1 0 0
1285 1 15.318729424522378 29.565802851357105 13.524324559510854 0 -1 0
2007 1 18.90458544972578 29.630059242743375 12.690439554436315 0 0 0
48 1 15.184691072223469 28.935366514410145 17.20901848622333 0 0 0
2456 1 14.90582342221397 31.453665194776992 15.239005680119076 0 0 0
2019 1 16.523361916273988 26.865208884461982 13.813519874886051 -1 0 0
1229 1 19.37848980762147 27.22060805011588 14.343885556794785 -1 0 0
2335 1 20.225473146765857 27.570049866029365 17.219347444470202 1 -1 0
1340 1 16.961321715253998 31.005355379816375 17.624774368654382 0 -1 0
1511 1 23.083206889705085 26.674979117345007 10.703719274521948 -1 0 0
1219 1 21.14660270624467 29.698552642730284 10.87882588774047 -1 0 0
433 1 21.057355689973072 24.872759013213347 15.316759956108996 0 0 0
1810 1 22.798805271053617 27.259996337689838 14.978227528664872 0 -1 0
714 1 24.775698904645978 27.19520252745783 16.845209572402208 0 0 0
2486 1 23.096021799251364 0.634418377183742 12.930434494125778 1 1 0
15 1 21.407275763575342 31.558535548671383 16.43725801418366 0 -1 0
1345 1 20.767672962747756 29.103440858312315 15.048408569102047 0 -1 0
1778 1 21.401926380379738 27.629982786482067 12.60696931180385 0 0 0
1694 1 21.515799753993686 31.611933186382092 13.238786595689474 0 0 0
1819 1 23.966677948835684 32.10414468631798 15.323138778034458 0 -1 0
2302 1 24.81649151051526 27.008814321332125 12.973863457090287 0 0 0
1256 1 25.221644762769333 31.259741781800276 12.895398025205631 -1 0 0
96 1 25.407029050791532 29.468348465100256 15.009521392394559 0 0 0
1271 1 23.348848114242667 29.494152084474617 13.29491912292112 0 0 0
1562 1 31.944197471589927 31.707341671793397 11.567569980636309 0 -1 0
1051 1 26.778166070626128 -0.13993969779917906 13.233149461363144 0 1 0
1295 1 27.48803463879304 27.6431091865769 15.311581671032519 0 -1 0
1009 1 27.778849135156502 32.79882750226186 17.31259606931755 0 0 0
1305 1 26.795416159618078 29.66674017196285 17.541647617847655 0 -1 0
2283 1 32.0871409623281 29.0810706995548 13.607419950998949 -1 0 0
1088 1 27.12611084034435 28.993753327843226 12.74773954728191 -1 0 0
1020 1 27.528585070949937 30.755647152103577 14.178783315582606 0 0 0
1620 1 32.540054513098 31.62852295807406 15.213761773918556 -1 -1 0
886 1 30.200784229459536 31.313445127973463 13.605867366007859 0 -1 0
120 1 29.52306075880707 27.30547531391777 13.331279453859151 0 0 0
1911 1 32.48197913501504 29.37807520715206 17.1043885784394 0 -1 0
735 1 29.687231386968985 29.310796744277155 16.046365056963765 0 0 0
907 1 28.88058637224091 32.97885192820264 14.646731213161475 -1 -1 0
966 1 4.515418917600408 0.1750806021128656 20.464742828248493 0 0 0
781 1 2.8723318182588207 2.2779597613116978 19.392278774126957 0 0 0
1001 1 3.574508244197559 2.4268590360057605 21.86393313545853 0 1 0
2103 1 4.442935513586032 0.1387509662376382 23.305330182127634 0 0 0
1768 1 33.044312815094806 4.6567559584663325 21.746280346701987 -1 1 0
987 1 1.2888387989592884 -0.06787614774847016 20.74112327358083 1 1 0
2004 1 5.026366741930953 4.920450745216657 20.52338008823677 1 1 0
950 1 32.491975883357114 6.788649961283356 23.429676745272367 -1 1 0
997 1 6.775414696594246 32.89210065526963 21.673181608680256 0 0 0
19 1 6.656427563721792 4.9107246167932 22.68028690683379 0 0 0
1399 1 2.176999888659716 4.720543364033435 20.93855510645658 0 1 0
1730 1 0.299751529226303 1.602139694442395 22.295347122851297 1 1 0
819 1 6.6867686139027995 7.490461687591658 20.549869972792813 0 0 0
585 1 1.5812730868960485 3.787054930373374 23.70678094179428 0 0 0
344 1 6.964876898442617 0.33878369237364225 19.100485570807788 0 0 0
1557 1 6.202872796513365 2.3870843852933814 21.251951394771773 1 0 0
1527 1 8.968358567132046 1.5598847836243592 21.12472896249729 1 1 0
529 1 10.409863690250164 4.119440942215946 17.95416631223002 0 0 0
1524 1 11.266855263425182 1.8298100444017378 23.469251651103278 -1 1 0
2280 1 11.226099692163999 4.926738362806873 24.07392852254304 0 0 0
1680 1 9.602771400968875 4.390137916849902 22.315047116756457 0 0 0
1140 1 11.472769212610327 2.1400230774664566 20.322999490536237 -1 0 0
1500 1 7.625514606389209 4.544799745134616 19.783809619475115 0 1 0
1376 1 9.265395647859785 7.257083946300556 21.718313431751582 1 0 0
785 1 11.00009550119012 5.491555529498025 20.397371005021174 0 0 0
1577 1 7.596572765171154 4.916322118841708 17.058732069776266 0 0 0
2698 1 8.87928106157274 6.5211427788041725 18.91237863497606 0 0 0
1568 1 11.731991033259687 32.979856441345284 21.48553754151108 0 -1 0
909 1 15.016940687003187 0.005964409445466402 18.284782923755294 -1 0 0
2008 1 16.419670235815165 2.1323118123516664 17.20011621488475 0 1 0
437 1 18.786406876189144 -0.09974067426898402 17.507840896992622 0 1 0
186 1 19.057514502278206 6.244854440341449 19.00137345412329 -1 0 0
2414 1 13.381968250743133 4.141341877673031 19.32262319670299 0 0 0
2123 1 16.623574012457233 4.25282998833339 19.825927158692924 -1 0 0
1872 1 15.982669031431607 2.3958886162237514 21.887331832124183 0 0 0
1917 1 13.514535666505184 1.0088845865909937 22.426527035899593 0 0 0
1333 1 14.679567032979241 1.9498091447986021 19.804133292063575 0 0 0
2785 1 15.544823213554528 32.82692106172125 21.0519327924851 -1 0 0
1438 1 18.60004376235369 3.6864270704272863 21.835213336137155 0 0 0
947 1 18.046862050837763 1.221529962980183 19.40442310519129 0 0 0
1592 1 12.933027492062827 4.088137453783968 22.283477091476236 0 0 0
1064 1 13.735078121619303 31.726600158706486 23.006248448194558 0 -1 0
1074 1 20.702044115020612 3.8757994331292713 19.578921144243417 0 0 0
1733 1 15.894108580377484 5.266056737989433 22.29580797286499 -1 0 0
1420 1 24.716154919613405 3.0106768741746395 17.26482683259034 -1 1 0
1005 1 21.689547495585046 5.554827582913532 17.551515709044203 0 0 0
1543 1 24.36534303413667 5.561258620748592 19.116729785613067 -1 0 0
1464 1 23.023740778111755 0.6663474046021807 17.988767329614458 0 0 0
1312 1 24.63550309807707 1.333656449750131 21.34130602073592 0 0 0
1771 1 20.356809443476905 1.6003699977029182 21.25885530575806 0 1 0
1850 1 23.184523656697856 2.765083432443357 19.94940163065959 0 0 0
1903 1 22.41945178149696 3.037531016624392 22.421853301423457 0 0 0
2009 1 24.61690987421078 5.351129725877916 21.830941846345986 0 0 0
848 1 21.96190034816614 5.67946394313661 20.965424086669355 -1 0 0
1699 1 26.25395721110386 2.8635546951399493 23.335113018557767 -1 0 0
1985 1 25.964548239612437 3.4275767186046795 20.239512219163217 -1 1 0
2535 1 21.422861711021195 0.9271321354077199 23.70328585406766 0 0 0
899 1 -0.13862373274905557 2.573812496973432 19.820384422558725 0 0 0
1372 1 31.801539034686424 4.990873786550654 19.050992447372156 -1 0 0
818 1 25.62092637147432 0.9979169924308786 19.078871845307 0 0 0
1793 1 26.98354097686781 0.28887924806673526 22.317801803289406 0 0 0
2053 1 27.54751136406175 6.20991366968378 22.42718321975753 -1 -1 0
1223 1 31.745073624382837 -0.2335329222780105 21.302604517225618 -1 0 0
1221 1 28.702957857720964 3.663284655295816 22.82567501479346 -1 0 0
2630 1 28.502684241989193 1.8048024811616485 19.904668162371845 -1 0 0
629 1 30.691604485714624 3.3730073506713083 21.036458591860267 0 0 0
1017 1 28.361619100295382 4.668338236861597 20.144674708818226 0 1 0
605 1 32.21335663236167 1.18379756569515 24.434522713486544 -1 0 0
896 1 29.48097844081177 6.157224757565194 24.054291597215986 0 0 0
2532 1 31.794371092718798 4.1412812882264864 23.637585020499287 -2 1 0
889 1 30.267206175155625 1.5191016030015554 22.673086942022927 0 1 0
588 1 -0.06657157352281565 7.068056533116775 20.524823031215305 0 0 0
1607 1 5.691071394821581 7.151603560278063 18.043595663951308 0 0 0
2044 1 3.1187749178104247 9.454794115716755 17.665768160624463 0 1 0
1741 1 3.9721611503541387 7.151257662621384 20.374665421909906 0 0 0
468 1 2.17301288283819 6.690597511424433 18.53870063494748 0 0 0
2313 1 1.2482786174766278 11.678008946522935 16.272012422385032 0 0 0
901 1 0.47385668890627963 15.081914247183281 15.928227375912426 0 0 0
1075 1 32.42694294853755 12.648477856011688 22.092199977912372 -1 0 0
1709 1 0.38619654850792934 9.16130611651685 18.44972000966974 0 1 0
2111 1 1.4019213324850326 11.036207316421729 22.174067078717684 1 0 0
1232 1 4.153489485971483 8.349764662343121 22.67780699886979 1 0 0
733 1 4.919090401883936 10.334230691377678 20.90176742532748 1 0 0
1108 1 3.4358974244056935 12.417218192718602 20.67214095483266 0 0 0
1879 1 2.117730985794332 9.205425151118733 20.60088720806121 0 0 0
1388 1 4.358702926532667 12.792205748115945 23.330523493934674 0 0 0
1835 1 6.5091278124768435 7.4554015213420834 23.371606826306536 0 0 0
2435 1 0.3936943476447868 12.318428806368493 19.604905713058052 -1 0 0
2988 1 2.6049800479245295 12.628100108137502 18.204060631638438 0 1 0
2573 1 1.7572598507327553 6.8921353301232315 22.794179884603075 0 0 0
833 1 13.151074919137397 10.067986179096629 17.41176664629392 0 0 0
1349 1 12.675173060565404 12.849376737868424 18.29124176619691 0 0 0
519 1 11.749856727049835 7.075184616449002 22.520955286384538 0 0 0
1179 1 6.889260817319289 12.676664723596588 21.801019397971523 1 0 0
1329 1 10.543571867628115 10.390551214605663 18.447153125116795 0 0 0
2690 1 7.859499523944022 9.914983530303036 19.25349549466389 0 0 0
47 1 7.769954194070435 9.64208584728867 22.21677540753861 0 0 0
2584 1 11.914307792016706 8.547300917182934 19.968571836973112 1 0 0
1259 1 9.206295258569641 12.632165554900192 20.207602940106828 0 1 0
1146 1 10.241511578250154 10.124188194289085 21.232947570700944 1 0 0
1598 1 12.883265177436222 11.005643870278568 20.27363344803528 1 0 0
757 1 11.399946378092888 11.861063055728081 22.935546419514278 0 1 0
1373 1 8.954782583991184 13.932218666706083 23.110568212210055 1 0 0
1621 1 11.708494626646148 13.761561340036208 20.9148437786475 0 0 0
3005 1 9.919129080833487 9.284178978648972 23.907624935383833 1 0 0
1065 1 12.685935586270807 9.31221109822285 22.961729541481514 0 0 0
1275 1 15.507747966155431 9.868508788626 19.71606947553081 1 0 0
227 1 13.895241553125162 6.552067757237512 20.657242765333965 0 1 0
1526 1 17.902302654889013 9.78179215904274 21.17069566674236 0 1 0
2350 1 17.070036205721212 6.879406392429572 20.759154415601852 0 0 0
928 1 17.971344509409015 7.941026577801192 23.220713800442848 1 0 0
1150 1 19.418466609359864 8.982107617259786 18.837272800640267 0 0 0
1534 1 15.147024171678316 8.28365595136163 22.141102642341696 0 1 0
655 1 14.370663819292185 11.454656926727475 22.669556507600273 0 0 0
874 1 17.55838029615735 11.25889841515806 18.86901977553913 0 0 0
2468 1 19.311888552679946 10.414486652655604 23.659021771644248 0 0 0
1063 1 19.820150677497203 6.119039656808093 22.083729731199814 0 0 0
1187 1 25.41093471755965 8.15949495043587 19.419729093689092 -1 0 0
1674 1 20.41070635261092 8.8149074737443 21.282925056314326 -1 0 0
1062 1 21.68784296445341 9.478666136739257 17.492932270959862 0 0 0
43 1 20.42826193153076 11.519733272505944 21.296010218172956 -1 0 0
1552 1 20.62745813093403 12.093159590442317 18.29651836291673 -1 0 0
719 1 21.751147331208898 14.26235290505124 22.488343439541293 -1 0 0
1348 1 21.554808384708203 7.4893431537563 19.484951717360946 -1 0 0
2014 1 23.256157837382556 12.78695886513293 17.86844782936173 1 0 0
214 1 22.747699927986208 10.879559045747445 20.008597788659223 0 1 0
1364 1 23.096331081246618 8.472087533566725 21.727186600202835 0 0 0
1279 1 25.375524739546854 10.228867976895936 20.836773432097264 0 0 0
1492 1 23.48441734952646 12.210690979769515 22.307814214968968 0 0 0
2368 1 25.239841008160862 10.101153388744367 23.60335866414819 0 0 0
1081 1 25.257630401710948 12.68685466443926 19.917430623184135 0 0 0
1618 1 26.157841118504663 12.570276907160272 23.9505712356454 0 0 0
1590 1 22.287377600443225 10.293683356205303 23.387394426094637 -1 0 0
856 1 25.357772977501913 7.503622445728099 23.771109204376465 0 0 0
1050 1 32.12454159606664 10.839124917623735 17.788532468225398 0 0 0
940 1 31.146325217201312 7.769850868544875 17.514982777465256 -1 0 0
2705 1 27.533506032090052 10.824964296129721 19.006881496368692 0 0 0
1720 1 27.624717760411265 12.17131945566293 21.324624022551312 -1 0 0
823 1 32.257164020824455 10.05763733995435 20.646438428478845 0 0 0
1149 1 29.660229191937436 12.123776716836504 18.45134932917312 0 0 0
1609 1 30.40927992896773 6.73479165892495 21.22112678977152 -1 0 0
840 1 30.080583877289097 10.942998671386231 21.962288336059014 -1 -1 0
1714 1 27.67871859990148 7.085379933478018 19.496363209942576 -1 1 0
2888 1 27.24821488607243 9.081554092128034 22.017145486388415 -1 0 0
2036 1 0.05818840898522855 9.037282257049595 22.500811226403794 0 1 0
1281 1 30.12061817605309 8.699337281759997 23.036738142874118 -1 -1 0
1212 1 27.868712104086708 10.314789888921084 24.447451407485193 0 1 0
2810 1 3.185160209773144 19.452920994600383 18.12170770134856 1 0 0
739 1 0.09209330350071959 16.256444879607848 18.417467689287445 0 0 0
2075 1 5.576936332045299 16.70456260994219 18.03808875159644 1 -1 0
2095 1 1.8337161735530179 13.919171013383972 22.44803267456786 0 0 0
1339 1 4.196931204807638 14.930677801314564 21.18590100138494 1 -1 0
731 1 2.1167341637644586 14.739915032577485 19.41554951647072 1 1 0
207 1 1.9894870931817146 17.935435434266925 22.87076023757495 0 0 0
1617 1 3.0061180515249926 17.516193924316045 20.146559874212507 0 0 0
1416 1 0.02413475275413712 15.520652480203955 21.535085933842012 0 0 0
1012 1 6.132577738200462 14.942205087498724 23.563042564047752 1 0 0
769 1 -0.09698922122338073 18.030270330781157 20.708947486912706 0 -1 0
1858 1 4.814258888932128 18.218563053465573 21.79714729440516 -1 -1 0
641 1 10.458751203889198 14.170125602199265 18.162817695253807 -1 0 0
1382 1 11.239267772449198 18.881093872355567 17.253777784934677 -1 0 0
1002 1 7.8475470683056505 15.37691961706533 17.858303459971705 0 1 0
1576 1 8.12592877796517 19.24436906234474 20.94156774002006 0 0 0
2057 1 10.218173846743078 16.734950155008896 18.0328241203024 0 0 0
1836 1 9.710992512566074 18.75313600720681 23.03277722520575 0 0 0
917 1 8.146060188974397 18.271982790969798 18.51946466809525 0 0 0
1647 1 5.95073265878972 13.527952302384259 19.724873128271582 0 0 0
968 1 9.0460499223881 15.385465824429609 20.66008980103515 0 0 0
1028 1 10.798775709307613 14.11666516688756 24.9818865468257 0 0 0
1736 1 8.956812444965912 16.302819228327266 24.278084843263077 0 0 0
1984 1 12.295319735511326 16.199992267405445 20.062305024016414 0 0 0
1652 1 12.849034131710795 18.619171662745334 21.299819945814864 0 -1 0
805 1 6.516317536632015 16.310620672438375 20.5377775162392 0 -1 0
2037 1 10.363098054429509 18.066953036720218 20.42156574893561 0 1 0
1826 1 11.902180532423877 16.28416286627409 22.6044813711002 0 0 0
1854 1 12.10767984862889 19.21581579382432 24.195248510669504 0 0 0
1670 1 18.83854457461404 13.64469351632271 23.0668603053468 -1 0 0
1113 1 16.23588198307665 12.94006773622279 24.17939576183623 1 0 0
747 1 13.867105284606911 17.7362747112112 18.26018575588193 -1 1 0
1753 1 13.354161494160406 14.356064475701915 23.064828629326104 -1 1 0
1385 1 14.78799902201366 13.608531115713328 20.81003838649143 -1 0 0
1697 1 14.406934988221762 17.01993391293893 23.428765963834234 0 0 0
2056 1 15.988674140410838 15.422183761188563 17.750792396309137 0 -1 0
1796 1 15.90848086087764 19.60363717981266 21.100429515586985 -1 -1 0
2217 1 17.06641402916249 12.43574177234373 21.331331649790375 0 0 0
1445 1 14.882597728729651 16.72031940612304 20.989700928025414 -1 0 0
1496 1 17.712228409102014 15.590283726712746 20.341658144683294 0 0 0
2430 1 16.75663093044003 17.942508816568935 18.93319830334135 0 0 0
1157 1 17.868360596020615 17.90033316609469 22.166870987512006 0 0 0
1955 1 16.778367945195054 15.43578588205761 22.89928363109943 0 1 0
2438 1 15.076899652668994 19.73850886632733 23.675482090106005 0 0 0
565 1 18.690857587114348 19.2370852475304 17.692545062331213 0 0 0
1068 1 20.306295392138953 16.363397949194034 21.97061128578917 0 0 0
756 1 22.481395496890528 16.973551400219527 19.485467513116156 0 0 0
1682 1 21.25223183630016 18.613201224442914 17.714921958610947 0 0 0
375 1 19.971556388311956 14.145401766894224 20.261272422812667 0 0 0
1021 1 19.681409248826437 17.54712780676852 19.749496212482722 0 0 0
2607 1 22.763597091324367 14.327206946432353 20.07020098178093 0 0 0
1035 1 23.753311784974716 17.410479252243167 23.73979476031502 0 -1 0
1137 1 24.024393405310832 14.51317919984503 24.656130997445537 0 0 0
485 1 25.223122359875248 16.015019172788442 19.71751835647562 -1 0 0
1909 1 26.373906296411466 18.89859118108284 23.584654709320695 0 0 0
1797 1 23.45368583921231 19.00819765307442 21.398050742476062 -1 -1 0
1623 1 25.806700913103043 18.27324601492843 18.80988394273782 0 -1 0
1619 1 24.413657871100234 15.277934638166476 22.042479450539435 0 0 0
2544 1 27.843699475110732 14.140219928765307 19.676841766816786 0 0 0
654 1 31.58458058793805 13.821789089659015 19.8945077827999 0 0 0
1283 1 31.953402472501235 17.641004083405324 23.190054563574233 -2 -1 0
1702 1 29.42268466150285 14.806665489388878 17.622070189744548 -1 0 0
2739 1 26.827643993048316 17.231807393036373 21.476857480105057 0 0 0
1531 1 26.923758155293203 16.376066784628744 16.71371506747819 0 0 0
195 1 28.2334702135952 19.28290898046025 20.153921951839163 -1 0 0
1918 1 28.36482036748707 16.893621005503388 19.228319752074604 0 0 0
2054 1 29.744905548924525 14.625396857309328 22.15618815509883 -1 0 0
1453 1 31.06179750645427 16.52300388830538 20.329896643880307 -1 -1 0
702 1 31.004046859426865 17.163368819637224 17.2097007931366 1 0 0
2040 1 27.005976757406618 14.673644468610945 22.447780875549313 -1 0 0
775 1 31.24953694899709 14.925236455300057 24.07823991382066 0 0 0
1727 1 29.519786274994225 17.838862988200905 22.115522471037057 0 0 0
2985 1 31.169014719563688 19.558729896277782 19.785564273453147 -1 0 0
1696 1 31.117148116539855 20.814210834169216 22.076398985041227 -1 -1 0
1986 1 28.59538245091622 19.900428211487885 23.057921259606875 -1 0 0
1546 1 4.0922472967370735 22.964277975508228 17.11614306145632 0 -1 0
1927 1 2.1902324464996425 22.94463695512807 20.030905879332398 1 -1 0
1989 1 0.31799139677123767 19.84119996599695 22.78491023029787 0 0 0
2267 1 2.0673796041396475 22.102989619369268 22.713748183896367 1 0 0
2161 1 5.57102764356118 19.34295501423178 19.317608230519458 0 -1 0
1253 1 4.7937789485780335 21.880375066341912 19.352210575530016 -1 -1 0
1072 1 6.907301710398228 23.623179178523646 23.4697999369139 0 0 0
1676 1 4.968432051005564 21.183703708472645 24.052063100446546 0 0 0
853 1 7.331693650195402 23.764707397479523 20.775355997895662 0 0 0
1197 1 3.0255801145670995 20.483041964790093 20.819471896066435 0 0 0
2197 1 4.616569794065017 24.60335306790444 19.4972561721706 1 0 0
1374 1 1.822230649105229 24.646717555831682 22.20735901350153 0 -1 0
600 1 -0.21255564231285698 21.241307105348938 20.376220290095258 1 0 0
782 1 5.708776098485189 26.005083261510123 25.58706048714357 0 -1 0
778 1 9.93529601039798 20.68679738745399 18.386795818341877 0 0 0
323 1 5.957627046197413 20.586893369308978 21.79929865811747 0 -1 0
916 1 8.90915023441749 22.693244281446933 16.912988422539314 0 0 0
1172 1 7.794449203626747 21.565106384021302 19.391893887305827 1 0 0
1365 1 10.600311921109036 21.01631235443007 21.031042905489887 0 0 0
2033 1 8.497307623146774 21.559052476828636 22.626805932204903 0 0 0
1294 1 9.989820159627051 23.620806125532994 20.81239195103383 0 -1 0
760 1 9.052677093092358 24.783128751252857 18.58859061542124 0 0 0
1881 1 11.723893718398875 23.267585908591485 18.588619283400593 0 0 0
1207 1 10.948684784657015 22.177030860607932 23.497461929768377 0 0 0
2171 1 11.324170050438124 24.901852520945575 24.096874330428953 0 0 0
1054 1 5.822824798397108 26.1604387972869 21.180284820163386 0 -1 0
717 1 8.719541860103917 25.450815795829076 22.564432749055936 0 0 0
984 1 14.107759722432387 22.89224620315948 20.094896278943732 0 0 0
2188 1 13.260912165180565 20.555775694567743 19.26314228826921 0 0 0
1704 1 7.078255242039828 26.354962947499622 18.317715918318047 0 0 0
2276 1 12.121194454481808 25.05732577250668 20.865812245154817 0 0 0
3025 1 9.028908260662341 24.33055193124191 25.43429458581125 0 0 0
2381 1 14.191868471916937 22.579467084015533 17.53014299882719 -1 0 0
1749 1 15.927140071738021 20.512216311014384 18.064830483720506 1 0 0
2474 1 13.234033525514294 21.011020341508594 22.408908695056546 0 0 0
1508 1 13.850537070843504 23.697799651021274 22.804130675240593 0 0 0
1198 1 16.478322370804314 22.85328862851387 22.345361669271778 0 0 0
568 1 18.818688779061223 21.79840273707164 17.77108059933432 -1 0 0
2026 1 18.53290052105459 20.01380720468342 20.131833288793796 -1 0 0
2116 1 17.13891397612364 22.073593266389693 20.12465095930789 -1 0 0
979 1 19.185152342519896 21.672585331607863 22.05787303874758 -1 0 0
1456 1 18.11998422675982 25.339346591848273 21.813384709794324 -1 0 0
1301 1 17.28272816636291 23.913659782193186 18.306594205102005 0 0 0
1763 1 15.59090247399348 24.76462177958262 20.464004492096738 -1 -1 0
1628 1 19.361077985667436 23.537651177567124 20.03736234162736 0 0 0
1673 1 19.135657870869892 26.26280050340795 19.36742616959135 -1 -1 0
1323 1 13.802314834124006 25.106025819631363 18.135380465841457 1 -1 0
1433 1 21.08689198552629 26.90898220667937 21.643600894634208 0 0 0
1258 1 20.75237262381988 19.26015992764665 22.06966832977015 0 0 0
1254 1 25.730806073363112 22.813928505671562 17.29089383253659 -1 0 0
2126 1 24.26826453920426 20.846676462730983 23.40297029919721 0 -1 0
1316 1 23.895616798608536 22.40719747556024 19.521885552420414 -1 -1 0
1130 1 22.123542655142973 21.791473831276868 22.536417143062035 -1 0 0
564 1 20.571928060908704 23.877179266124536 17.79479301167567 -1 0 0
1206 1 24.174305580328156 26.208222110860248 20.028975518831924 0 0 0
1468 1 21.51558603399604 21.345928870159216 19.776168156438644 0 0 0
2146 1 20.614528651356473 24.140931616381568 22.53366669752131 0 0 0
1518 1 24.23745170378039 23.680209306165345 23.034190681112378 -1 0 0
1104 1 23.25364900771436 23.725074060390067 16.908638618285877 0 -1 0
1144 1 26.02791932949578 24.126110367082447 20.699120885813784 0 0 0
1599 1 22.26102560765794 24.239717435543955 20.360966142630613 1 0 0
704 1 30.638841639956766 22.549247866019677 20.040235526216264 0 0 0
1791 1 0.6177607496674553 25.395260319403647 19.818580236407616 1 0 0
2802 1 26.85871329867259 20.527880238649768 17.932853150880998 0 0 0
1239 1 28.522164007129017 24.585476564552184 19.36095117035842 0 0 0
3269 1 25.416819393831915 20.43159169461571 20.67923465375334 -1 0 0
301 1 30.82818191029458 24.247833027286777 17.868050717014466 -1 0 0
1862 1 27.861885985229144 21.779811205260614 20.709910523663623 0 -1 0
1723 1 29.43981334677006 22.031458045528492 24.69467535628573 1 0 0
1996 1 32.865686630428044 25.887134894554894 23.058376413947823 -1 0 0
2018 1 29.333579947530776 23.660293659303022 22.40945274222296 -1 0 0
975 1 32.63630933803461 23.312340272885194 22.307331725155557 0 0 0
2269 1 27.437528383646015 24.284881727910495 23.798279603734784 0 0 0
2016 1 28.85813549856828 26.312973833745875 21.74349949351372 0 0 0
844 1 1.1340089860534206 27.10675301175488 17.735151648792485 0 -1 0
1047 1 3.071092602862972 -0.11387052834341214 17.711665319085935 0 0 0
2458 1 31.716192630749227 30.608856424978047 22.475286139745986 0 0 0
2323 1 3.6717590149912738 31.060830293131794 20.266483173651675 0 -1 0
1290 1 3.2467632849954704 26.575777864836613 20.495038199774804 0 -1 0
2261 1 3.89097923036809 25.823552283576944 23.08174295570022 1 0 0
694 1 7.08109703032513 29.0639349340374 18.07899750279502 0 0 0
1572 1 4.4056061085788185 27.14678063812397 17.732256562991555 -1 -1 0
524 1 5.088984595814647 28.90551619306426 19.840446982906855 0 -1 0
983 1 6.728993346955827 0.6008111249601216 24.50273661497725 1 1 0
759 1 0.5886325684426483 29.667767761014638 19.23417286223466 0 0 0
855 1 3.227571657035314 28.920885985602673 22.25612781282287 0 -1 0
1460 1 6.288861391083813 27.806503361680218 23.59432118952349 0 0 0
1371 1 5.923225760853504 30.328215753154442 22.204902594842284 1 -1 0
872 1 1.4019206452011894 27.19042392969633 24.31028588367326 0 0 0
1542 1 0.07263373728525581 32.0008672675431 23.8756816466422 -1 -1 0
3317 1 1.1630465196746724 30.61154897472685 21.519908313895556 1 0 0
3000 1 0.752013869300699 28.036568576761564 21.460116419980043 1 0 0
126 1 10.827010255687316 26.80544011545722 19.33814758750779 1 -1 0
2377 1 11.262069214603153 30.48629949965607 16.929165026843034 0 -1 0
2917 1 9.486364183748346 33.002999726923825 23.070469037097556 0 0 0
1106 1 11.811514519155052 32.96465905657784 18.529384407573357 0 -1 0
1792 1 8.509870935901604 29.118070763270545 22.753063863844137 0 0 0
958 1 8.155421094774598 27.703989108645285 20.415159044858044 1 0 0
697 1 10.563599423052647 29.61904422104801 19.73215706984772 0 0 0
1444 1 7.683466107734314 30.59725054183382 20.27381665722103 0 0 0
277 1 11.512974421844323 27.927982761800507 24.40469057830046 1 0 0
1227 1 12.685404671509104 28.01956151202078 17.644254924854156 0 0 0
816 1 10.494152423440397 27.333877518023964 22.14464034243297 0 -1 0
1442 1 9.724436039136666 32.50239203940228 20.130093154757425 0 0 0
1633 1 9.352424925225286 26.88227318534321 24.99924598602965 0 0 0
738 1 12.638186962837507 28.153764039823923 20.673329066378148 0 0 0
2318 1 10.91920078770364 30.4554069078623 22.30013895056405 0 -1 0
1814 1 7.539311808521468 31.396103994333703 23.64686000667638 1 -1 0
1710 1 13.219533170628017 30.987628095113802 20.378467571022828 0 0 0
2320 1 15.571958447852714 30.14657231424894 20.29042038254628 0 -1 0
1539 1 18.1283645671747 31.369647967657816 19.936209396278603 -1 -1 0
1069 1 14.288202646103755 28.995722180697758 22.595443821635882 0 -1 0
1334 1 15.002333239078943 27.51666975284473 20.098012606284584 0 -1 0
1711 1 17.74153408821871 28.357257448797846 18.407711254323754 -1 -1 0
2969 1 17.045391845428224 27.817329065598482 21.619880523744506 1 0 0
1608 1 13.88715245607784 31.136545954280937 17.704541773305326 -1 0 0
1435 1 19.904603583165198 32.07274245106993 22.013434520434206 0 0 0
2290 1 19.671875535618305 30.19091396215288 18.244056353683664 -1 0 0
803 1 19.477110903848303 29.135176815740294 20.760927253093705 0 -1 0
2444 1 13.695293152427643 26.13327976590554 22.41391554201208 0 0 0
1138 1 17.193104598500636 30.669286284366102 22.499622167407352 0 0 0
304 1 19.20176793177223 28.735990136818415 23.438714140105056 -1 0 0
2000 1 22.4855226711422 25.728241349777733 17.899307232760236 -1 0 0
2024 1 23.40727382382474 26.119584508348613 22.4934798299497 0 0 0
1494 1 24.801629699061092 31.8602990498253 17.756653881683008 0 0 0
1781 1 20.74842120129979 -0.1845868085506197 19.29657804763041 0 2 0
1550 1 22.757168463480056 -0.15465339370415263 20.7875829000882 0 1 0
1168 1 25.050783442831037 28.999271321201242 19.03269953871782 0 0 0
1031 1 23.08349435221234 30.83852803500395 19.101995668111588 0 -1 0
1211 1 24.706918797732886 31.3061355158619 21.128413875075495 0 0 0
1397 1 26.093053019303056 26.031020314311213 22.885893487169113 0 0 0
2105 1 21.878603302593486 28.11486061483496 19.099357708669285 0 -1 0
1581 1 21.72844456873656 30.546026332016275 21.25475700467345 0 0 0
793 1 23.01304666266242 29.338027750003924 16.673884293730712 0 -1 0
1993 1 26.63425655125019 26.622422364592833 18.89725376567226 0 0 0
854 1 23.693055711091187 28.747443604238843 21.389917034867082 0 0 0
971 1 24.537164827284936 30.81820096776977 23.972687287563744 -1 0 0
1082 1 26.92634669319406 28.24462201963215 21.71926307420567 0 -1 0
2942 1 32.17736973423179 26.917551963373242 18.38916438584344 0 0 0
1013 1 31.14322005094312 25.40512059234529 20.92673868870526 -1 0 0
906 1 31.61675943791985 28.864526098276855 20.101267591311135 -1 0 0
1502 1 29.568677117413614 26.360713930012412 17.34197600154212 0 0 0
1571 1 30.743599969076765 32.35294938789882 16.741081673679417 -1 -1 0
1304 1 28.912960651469472 32.91427583678982 20.879634049831395 0 -1 0
1893 1 29.387682435897915 30.42556255702817 18.264696537272144 0 -1 0
1857 1 29.25911208248991 28.761136922787774 23.542005442483752 -2 -2 0
1750 1 29.036578028627428 30.0781757986789 21.10477558469247 0 0 0
2303 1 27.120289340551356 31.61672568351804 19.761845617110275 0 0 0
1770 1 31.997667762964475 31.366164185118564 19.224556200656238 -1 0 0
1441 1 29.01567815354684 27.922156832322887 19.245352268093367 -1 0 0
628 1 31.51162265690689 27.904249874520932 22.713795165867044 -1 0 0
690 1 27.044637546027175 30.893790788574567 22.77749012161993 0 0 0
1737 1 5.196966510806453 3.051458099420935 24.04738867826956 0 0 0
1597 1 3.008938987988566 3.132386340354388 25.826308039600114 2 0 0
1776 1 1.8459640214506898 1.1659701272948766 24.090867016623868 1 1 0
1006 1 0.8397284833862719 4.744603118740309 27.98208102714425 0 1 0
961 1 3.3581853609430654 3.986984505975732 28.379314980883013 0 1 0
332 1 1.6994463000980762 1.6477130788506325 27.743067500282994 0 1 0
1718 1 3.8549401942110078 5.178560273587385 23.084229954084332 0 1 0
2498 1 4.599543031452141 5.323001723513476 25.57638559309786 0 1 0
308 1 1.1855280462953992 5.628942555164017 25.20670194133142 1 0 0
996 1 5.430723657516642 2.5931916410236644 26.525688941509706 0 0 0
2356 1 4.0693817576162274 1.2816062006380102 28.96625819300308 1 0 0
1530 1 7.550549889421434 4.1943639280776335 25.62340853241782 1 2 0
2085 1 6.209858351520368 3.2357325782676236 28.971538483692925 -1 0 0
2001 1 5.973165186919195 -0.20929363963944012 27.752450781689532 1 2 0
831 1 10.005119815198952 2.9004904111362757 25.701269211655283 2 0 0
2187 1 8.544742779740709 2.164517789210104 23.547755171947752 0 0 0
2759 1 9.02819625975224 6.713673113085048 24.23635933779879 0 0 0
2245 1 11.433522904981956 2.5496919326702985 28.118333271176972 0 1 0
1391 1 8.989180090406103 2.303266813069756 29.881491279557046 0 0 0
1354 1 10.676071875436783 0.025068877312864085 27.595717634604867 0 1 0
1874 1 8.649722754533634 4.224453282541386 27.97743889800768 0 0 0
1914 1 11.359044158799874 32.805785041226386 24.750547742245583 0 -1 0
1162 1 12.893646280599643 1.2721467299262001 25.82260549274305 -1 1 0
2358 1 7.94905181728728 1.7788535080986134 27.15244677820313 0 0 0
1622 1 13.248819794909258 5.018508686960177 28.2058994467024 0 0 0
703 1 5.377948300174465 5.546147362343747 28.109424438547684 1 1 0
1540 1 12.69245509962393 3.830695479526454 25.90231391610181 0 0 0
2021 1 14.63393776029373 2.9316434488533485 23.95004715602992 0 1 0
1184 1 17.71882760654862 0.09151298994806543 21.982332794871706 1 0 0
2082 1 17.265646976742406 4.59166864984307 24.36102410861368 -1 0 0
2137 1 15.879243415765359 -0.1875376850941811 23.967069169182775 0 0 0
2371 1 14.646147093777735 2.5886486868817276 28.82464061088223 0 0 0
1233 1 15.710791313279639 1.527572375830167 26.08143555943772 0 1 0
1589 1 18.06969691023501 1.9530035342802479 23.943704579165743 0 0 0
1722 1 16.09364341178404 -0.14366826209469244 28.797269060840517 0 0 0
1777 1 18.43933235416903 4.139943580107153 26.684758558154403 0 0 0
956 1 15.261708552617511 4.141096086649019 26.612109927190847 1 0 0
2824 1 17.887840195084866 1.534816180528408 27.52821826216996 0 0 0
1774 1 16.791892977305384 4.5278069769447225 28.984440428436614 0 1 0
1332 1 20.211709900272194 3.767484589632612 23.891333263374243 -1 -1 0
1317 1 20.709039864992885 -0.2217398496394054 26.903220206336712 -1 0 0
912 1 21.75369524312116 4.082995524757374 26.152392170218544 0 1 0
2419 1 23.613330094090966 2.117767476949624 24.9853999440382 -1 0 0
1643 1 19.85053984977531 2.2068205205259983 26.33262942121968 -1 1 0
1482 1 22.81936279032699 1.3918213959547834 27.53868022620785 0 1 0
1201 1 25.549100139629775 1.4120107603028496 26.320812388925315 0 1 0
1890 1 23.159921070229345 5.539500447626188 28.65181860952821 -1 0 0
2328 1 24.689040675336148 4.6397000933023795 24.394503329754155 0 0 0
866 1 24.425068592632684 3.573720032778397 27.32727917817427 -1 0 0
1946 1 26.539057517972072 2.507068285546966 28.554171026878038 0 0 0
843 1 23.228453906171186 5.227612650574438 31.22843654872763 0 0 0
1535 1 20.522226488398893 4.720445075742789 28.39065737272846 0 1 0
1860 1 22.254105753940923 5.6800302380500804 24.129962181243688 -1 0 0
1913 1 24.9199050121281 -0.18451977572935824 28.996363742499668 0 1 0
2316 1 21.821701777849363 3.0745949880289083 29.99750092285885 -1 0 0
794 1 24.541923609727238 2.679070500806993 30.240736992413588 0 0 0
2022 1 26.95184713228727 5.995230190266936 25.459601528941285 -2 1 0
773 1 -0.22506196760818037 2.8349233258488 26.249714211545072 0 0 0
2291 1 27.44960773902865 3.3604201942286713 26.077275427202675 0 1 0
2533 1 28.755831979060357 5.296814896280944 27.684660726995276 -1 1 0
2129 1 32.35755300615818 32.002295774565674 27.97278707533497 -1 -1 0
1762 1 30.026796053956772 2.8846138664814402 25.899355100470576 -2 1 0
806 1 28.08959191726978 0.950310693931177 24.521914526882025 -1 0 0
2786 1 31.51719374437173 5.241314785537775 26.069575008893587 -1 1 0
3011 1 27.78684415279484 0.5366897495239161 27.33122385693201 -1 1 0
2127 1 32.37900382491879 1.2505438869950884 28.777423495875674 0 1 0
1569 1 28.777878972154113 6.259657444774583 30.29318546910861 -1 0 0
2494 1 29.533298847898138 0.668893537923968 29.120733387426853 0 0 0
2357 1 30.432039224482217 3.10593834290852 28.465692777226998 0 0 0
2297 1 31.593267894620833 5.581442717161688 29.488920201507057 -1 1 0
1100 1 26.15059788639824 5.5751891371399465 27.725156463090155 -1 0 0
1558 1 30.67967660027317 0.32629282211926086 26.65796100681532 0 1 0
1968 1 28.22632603453921 3.9558539845154264 29.851195794829227 0 0 0
1236 1 5.769585068582912 10.731184403441855 23.532333742682003 1 1 0
1944 1 2.943284282297886 6.756916695747504 27.559486211700662 1 0 0
16 1 3.5267514726401856 7.708048028072036 25.195389254548513 0 0 0
1650 1 5.260578569234991 9.847474790735017 26.582606907386268 0 0 0
1489 1 3.101535416082489 11.5063502450635 27.900226210569297 0 0 0
2310 1 4.913293617389924 8.361342215129435 28.937470424768907 0 0 0
1222 1 1.9155660504353207 9.198467115013404 27.890009778800753 0 1 0
2028 1 3.0062190205132167 10.360228561181751 24.266049219506264 0 0 0
1842 1 0.8519757481284866 8.273827592975254 25.203470930309965 1 0 0
1992 1 5.498655466231804 12.582612805180283 29.797488150719335 0 0 0
1260 1 0.44254042960083395 12.938060720858868 27.77153771452089 0 1 0
1528 1 10.650315435213743 5.506630329945989 26.93541228887721 0 1 0
2224 1 11.63833361606497 7.518301610418688 28.077234258942227 0 0 0
1649 1 6.645352374436765 7.0766548586783395 26.325428978359405 0 0 0
1659 1 7.263131578058797 13.638853344866153 25.894298699536332 1 0 0
1513 1 12.164422046687612 7.5248343959087185 25.148130577326608 0 0 0
1103 1 9.604430188175803 8.578854086418517 26.47339377683957 0 1 0
1901 1 9.058425495724816 11.894800531620525 24.73695720220998 0 0 0
1417 1 7.757610436322359 9.825508870041189 25.092277860832564 0 0 0
125 1 9.936084711132358 10.725751562475601 27.717197311402856 1 0 0
1594 1 9.37970717551405 13.32628158875211 27.884817776558254 0 -1 0
1287 1 7.589516261782873 8.902921869922254 28.12435381940499 0 0 0
1988 1 11.897019455442413 10.234900775801746 25.728385613981363 0 0 0
1115 1 12.15116154076588 12.262142656408122 28.178157095478202 1 0 0
2376 1 12.085746874365201 10.195138633170709 30.202547749519624 0 0 0
799 1 7.221983106140896 11.615344458432498 27.900190858480464 1 0 0
2701 1 8.474466353989893 11.298597191088058 30.40993838452997 0 0 0
1846 1 14.391348350560861 7.446126378671339 26.866587359330516 0 0 0
1868 1 14.39673878671345 6.133320442196851 23.880131937057044 0 0 0
1974 1 13.072806787064959 12.904085139851444 25.22061712868646 1 0 0
1841 1 13.393648753117871 9.54087092640802 27.73975752321968 0 0 0
1915 1 14.709158352492212 8.911527834208673 24.5358589860729 0 0 0
985 1 16.452793575548935 6.918788090856279 25.345572981660712 0 1 0
336 1 19.38484933562184 6.228814287251319 25.371959544248277 0 0 0
1803 1 16.539084979565946 10.268485926109733 23.592928871041753 0 0 0
882 1 18.47689226208892 8.561152455792815 25.822972821898226 0 0 0
1353 1 16.791475004251836 6.98603551432816 28.073622737572375 0 0 0
1876 1 16.19599817453139 9.653747200228434 27.986657755260477 0 0 0
1315 1 17.174118078202014 12.212980949254838 28.177184256078498 -1 0 0
2073 1 15.315564378059067 11.29479986381536 26.019036336941397 0 0 0
2469 1 18.22640429033297 11.548481908176415 25.655047415560475 0 0 0
2108 1 20.733956536337548 8.006513740559445 23.878108797904282 0 1 0
2160 1 19.419190992265825 7.356338236956408 28.314742011353758 0 0 0
1394 1 21.474853494723735 6.943184525206477 26.583417300900567 0 1 0
1809 1 20.895548107356188 9.625275866213723 26.17877698368655 0 -1 0
1735 1 19.193653004659613 10.443489331727331 28.07046993179691 0 1 0
1972 1 21.822783877222705 8.466184566483413 28.849939091748844 -1 1 0
981 1 23.758113974303896 9.894059271981636 27.372357374376826 0 1 0
1574 1 24.39030310629056 7.029736704986546 26.700603415599158 -1 -1 0
521 1 23.27127342268356 8.545738088536995 24.94347064689058 0 -1 0
535 1 21.670948020150558 11.499710142879165 28.676793375589252 1 0 0
1303 1 24.4127040963962 12.652832558076769 28.686474618053186 0 -1 0
2960 1 23.789524713445132 11.701539734264673 25.354592279231788 0 0 0
1454 1 23.493219514600163 9.561525866292655 30.590606942659658 0 1 0
1807 1 28.49728068525298 8.097351279831694 25.569691318271147 0 -1 0
1816 1 -0.13896865596169775 13.332967806651467 24.57218243406269 0 0 0
1969 1 30.934209041659816 8.306033455974925 25.658880133555204 0 0 0
2814 1 0.9245763268473052 11.059999503884079 25.938261202662 1 0 0
1664 1 -0.09833732690737483 7.219397701455994 27.56162090586946 1 0 0
2237 1 26.605882979349936 11.780725104793666 26.75831825415492 1 0 0
2150 1 32.113815323595894 10.58942225469176 24.26952900965186 -1 0 0
815 1 29.378674832403185 10.421150858977056 26.61573714317941 0 0 0
1838 1 32.141270871821064 9.924654654060946 27.387087480012724 0 0 0
2530 1 26.180273951806104 9.169457671383146 26.13762869471932 -1 1 0
1637 1 26.97566913877797 7.774515564814468 28.243451108206415 -1 0 0
2099 1 31.449104928379803 13.545836917988794 26.529815718742842 0 0 0
1582 1 26.928141407480357 8.316524335737173 31.12646151350321 0 0 0
650 1 30.348656448256126 7.408800336176783 27.876364399001815 -1 0 0
2254 1 28.901765879130554 13.182635265559282 27.426333686969876 0 0 0
2106 1 29.236996705685822 8.964265912160837 29.28258335865298 0 0 0
1739 1 30.209260140084627 11.490495138792863 28.973581019979896 -1 1 0
933 1 31.889776787373712 8.493692311543493 30.192590963140336 -1 0 0
1973 1 2.3377708244552395 13.372419960675114 25.547245721515498 0 0 0
457 1 0.36577393711450173 16.10588363492016 24.36597880324288 0 0 0
1342 1 5.023682500021468 12.339595920758573 26.525314791970782 1 0 0
1319 1 3.547498520044815 15.777621344702515 23.375167462682334 0 0 0
1721 1 7.140489169179617 17.53284873872664 22.820371210054866 1 0 0
2654 1 4.33744732086875 16.943562797154282 28.10211828762557 1 0 0
1406 1 2.859359680542242 16.981745216476927 25.84698118618695 1 0 0
2461 1 4.491764178409284 18.56920695450073 30.17956608006284 1 0 0
2625 1 6.762995733927793 17.26768452947226 26.193469334300197 0 0 0
2523 1 2.890584070865308 19.28058750982663 27.438448035036984 1 0 0
2689 1 2.956999244328257 14.741199720643024 28.096515357899765 0 0 0
1076 1 0.6617081832966676 18.8038258586248 25.442889487988328 0 0 0
1567 1 2.233788787426347 16.91976017031932 30.098291538809995 1 -1 0
500 1 0.474457809928877 17.685808258977946 27.6852610766489 0 1 0
2914 1 4.529495178278894 18.489738409025815 24.596991192023967 1 0 0
2464 1 1.412561036232064 19.53100859632603 29.832832025136213 1 0 0
1419 1 6.129382076231438 14.89156111580031 28.388773858865342 0 0 0
2902 1 11.961788938073555 16.667661467921757 25.393321961194403 1 0 0
2234 1 9.446639301689686 18.551592656127188 25.968684644676017 0 0 0
1615 1 6.2516677504592195 19.289408919431292 28.164624989952365 1 -1 0
3059 1 9.139431467019389 15.587706720364194 26.775970897082125 1 0 0
1461 1 12.00902024975847 14.729813155288374 27.533223747320257 0 0 0
1478 1 8.97425952833145 17.70866884243907 28.86600747253765 0 1 0
1383 1 4.834495169334448 14.999449681365304 25.872369440930612 0 0 0
986 1 10.321850388417996 15.579428874293693 29.84873916608503 1 0 0
2210 1 11.380344691932974 17.845285677881396 27.987046877298944 0 0 0
2223 1 11.112142230079938 20.310812687174888 30.02868497095869 0 0 0
2545 1 7.199035234247188 19.81705106935701 24.65080268334363 1 0 0
1282 1 18.748309541666544 15.768739864556647 24.82892573174357 0 -1 0
609 1 19.603293137323593 18.384038994596267 24.49671705361415 0 0 0
2408 1 14.956404976304661 15.296600927900323 25.533534710653964 -1 0 0
1276 1 12.68187940567879 17.691933089484046 30.636717851696094 0 1 0
1626 1 13.871330844413633 16.41937858412628 27.978197135860665 0 0 0
2537 1 17.27734227921487 14.377509410950656 26.463575707380713 0 0 0
2427 1 16.6767435790137 15.009152120218848 29.328046527463137 1 0 0
1490 1 18.603153111982223 16.35377019268459 27.633165398107803 0 0 0
1010 1 13.995000984706397 18.563833020861924 26.0136201964122 0 0 0
716 1 14.475209503436444 13.635458622758806 27.722491547548085 0 0 0
1335 1 14.242984351294151 19.126258099613516 28.50682788740099 0 -1 0
1675 1 16.306017253709868 17.828191481737473 27.8516166079818 -1 0 0
1523 1 16.76124177965098 20.710741731094636 28.958752060640865 0 0 0
2915 1 16.674054808379868 17.77026355202082 24.913496036612226 -1 0 0
2169 1 20.56348486823184 12.66797419793877 24.886456627314843 1 0 0
1936 1 26.025884732029567 16.133697204844456 24.75921084232078 0 0 0
1805 1 21.59061347413354 16.436526679772303 24.602904555534767 -1 -1 0
1432 1 19.888079967277974 13.556322994846477 27.88345476614512 0 0 0
878 1 20.49278001056168 18.610682198443712 28.865372496999445 0 0 0
1314 1 24.39414607941272 16.244614648306833 27.090313385513237 0 -1 0
1754 1 24.20509994411167 14.676951004912775 30.385029921451093 0 0 0
1501 1 26.381227288123704 14.47486780041597 27.252155211010862 0 0 0
2282 1 25.41645893478337 17.6243714512513 29.272236138336254 0 0 0
1326 1 21.760220843324337 15.594220186406297 28.11527149105358 0 -1 0
1356 1 22.302203577282143 13.63818194861408 26.431948188358877 -1 0 0
1215 1 18.65129385283193 19.216248106962006 26.6373510031036 0 0 0
3273 1 21.732466544334084 18.14978271246499 26.84416253316834 0 0 0
2500 1 23.227159269490166 19.274213266150728 28.98374137842307 -1 0 0
1325 1 26.550185552077977 15.189935178636034 31.162391461048784 0 0 0
1392 1 21.194351554792654 14.163793613735708 30.436749008638674 0 0 0
734 1 0.6950731466635924 15.265730148567771 26.979639500546778 0 1 0
1430 1 30.21827718010469 12.181606292132313 24.355648098362753 0 0 0
2101 1 27.567538438516074 16.44475930192835 28.401092128082663 0 0 0
990 1 28.40479564566529 14.258036460859747 24.84245478760187 0 0 0
1979 1 26.705982708583026 18.297846133908862 26.61920005032431 0 1 0
179 1 0.025537489463667438 15.257929768446932 29.547977634300395 1 0 0
2385 1 28.653890723255703 16.809263676553414 24.73983087187818 0 0 0
1604 1 31.77343684864174 16.908083367361545 25.98076537772677 -1 0 0
1634 1 29.822172379207856 15.560201359806792 27.48296656302611 -1 -1 0
551 1 29.452194934642677 18.148519754735926 27.75488445556737 -1 -1 0
2166 1 27.64294659809907 17.64316881081702 30.83173411135618 0 0 0
376 1 31.305474811423565 17.793477069820938 29.701985981947182 -1 0 0
1428 1 27.034984891323873 19.828250643235712 28.68039984933884 0 0 0
1560 1 29.581130428937925 19.631567447424967 30.019350483088882 0 -1 0
2113 1 32.14869177951924 19.562086679095295 27.306303833724705 -1 0 0
1772 1 30.343487557232415 19.148520456823604 24.969459278838976 -2 0 0
2182 1 29.115109408097965 14.961980205306457 29.83546199406347 -1 0 0
1439 1 4.544336276958773 23.412856833838706 22.16998358680048 1 0 0
2373 1 2.606076859788107 20.515491631462407 24.894136597651176 0 -1 0
1669 1 4.370258096476463 21.259441665965237 27.080673842913402 0 -1 0
2388 1 2.747533220801406 25.305056178638058 25.574157294595327 0 -1 0
2206 1 4.7259356187518184 23.458263527916415 25.163248377070666 1 0 0
1160 1 3.0724997778740595 23.576011812949623 27.91290646029723 0 0 0
2086 1 0.3942496381256488 24.46735220313437 27.196155141636766 0 -1 0
1516 1 32.15047532113017 21.172655844685963 24.791969864740143 0 0 0
1361 1 3.6466793035729594 21.882276967557736 30.10281778833874 0 -1 0
2872 1 6.333510182970209 21.71246187458495 29.32939211060044 1 -1 0
1032 1 0.8883107779319023 23.117555595965904 24.786794196546346 0 -1 0
3054 1 1.2449495903784409 21.407226780842684 27.206868510888125 0 0 0
673 1 4.076931833821441 26.204809157341227 27.722275147659303 0 0 0
1930 1 5.319537887500728 27.32212711013178 31.679292517909985 0 0 0
1204 1 3.6997001376442777 27.712104815380634 29.725528392366282 1 0 0
952 1 11.207020297628352 25.723707131883998 26.826896520163476 0 0 0
1595 1 6.852232823503168 21.742505836015702 26.50331352596324 1 0 0
1747 1 9.234910179320213 21.400115738994398 25.333422304048852 1 1 0
2703 1 6.009769233009389 23.937333057828816 27.995031772449785 0 0 0
2378 1 8.670694222006194 20.611093066110115 28.32759412456842 0 0 0
2178 1 11.332246204997624 20.472886773865472 27.025176243556725 0 0 0
2948 1 11.495217664336062 23.311340861260643 26.486323877689866 0 0 0
2149 1 7.643198333549868 25.684309386169467 27.231059612362788 0 0 0
2308 1 8.577428036692087 23.420116372118745 28.0636509745767 0 0 0
1683 1 10.070143467908075 25.47265314260031 29.07655166958059 0 0 0
1497 1 10.912042862692754 22.918438401011517 29.494078734869163 0 0 0
472 1 9.423546711967173 27.055292715623562 30.773118699805334 0 1 0
1795 1 13.41818955540039 25.089324543918885 28.479411621835872 -1 0 0
1358 1 9.066698401755819 22.120416162583385 31.346225674646924 0 -1 0
1087 1 11.942099055764919 25.16028231411432 30.910105345770166 0 -1 0
2049 1 18.370570219739907 23.472795973485177 24.33576330618656 -1 -1 0
26 1 13.87251830123993 24.300816872981375 25.856647744846175 0 -2 0
1153 1 17.63662326560125 20.620912524708906 23.956716810441105 0 0 0
724 1 13.394324332938202 22.10412116222789 27.82978688903257 -1 0 0
1249 1 15.619824380854169 26.141093840150123 26.606629477084706 0 0 0
2816 1 13.571943913640899 21.5967455246834 25.101093388399203 0 0 0
2038 1 15.952190476012335 20.297255032988737 26.21927068808667 0 0 0
688 1 16.236883736641158 22.575798022465165 25.139383100465885 0 0 0
2183 1 18.188191967911656 21.98496631091645 27.01890497317923 0 0 0
1755 1 13.395379798320361 22.561182400451248 30.489375150474256 1 0 0
1289 1 17.96594205346142 25.291073952840577 27.450179024610414 0 -1 0
1994 1 15.733666589070806 26.097600855554877 29.015268275312305 0 0 0
2015 1 15.701057979363856 23.4656236710404 27.68148913924813 0 0 0
1928 1 15.997884148857784 24.994855489411652 23.882053798391347 -1 0 0
2354 1 14.793329154362443 24.792383154955505 31.418219924136302 0 -1 0
1688 1 18.121778083254327 27.277274139176974 29.644719657054683 0 -1 0
845 1 19.186762568525495 23.02643030881011 29.154462220491666 0 0 0
2546 1 21.796172315821238 26.41612529608913 24.507106992784337 0 0 0
622 1 24.63921259003623 23.04788283055852 25.91243667081968 0 0 0
2068 1 24.73047493797738 25.72974151843212 25.053145063497258 -1 -1 0
2175 1 21.979673736439395 19.61422378279837 24.45978365379752 0 0 0
1624 1 20.255181057515745 21.640261374114754 24.806027863068092 1 0 0
1387 1 20.55485221989634 21.03185957854 28.263043967156204 -1 0 0
2172 1 24.818626021381544 21.583128152425843 28.374835725752835 0 0 0
798 1 22.453819024752825 21.539015460104206 26.44787331375766 1 -1 0
532 1 20.343925975739864 23.691990881673277 26.63624082361813 0 -1 0
2482 1 20.529255927839134 25.444636634727857 28.69707495431328 0 0 0
1359 1 22.255913813292434 23.880672251124235 24.6819978125956 0 0 0
2207 1 22.54575202636398 23.379898507326427 28.433363377645737 0 0 0
1521 1 25.23299720379892 24.19828481319082 28.146019473096484 0 0 0
2484 1 24.137816410987778 19.255332792773473 25.850690565819164 -1 0 0
1564 1 25.201016350249738 23.862395594258704 30.90529148263495 -1 0 0
1533 1 23.05595008213878 21.768032161166264 30.735889008099 0 0 0
1469 1 22.750316592776873 25.25053152918717 30.4522412915826 0 0 0
2139 1 31.694113386495818 23.974161273708116 25.197593912812206 0 0 0
1393 1 26.551227683916306 20.994597777635907 25.55023131427109 0 -1 0
3051 1 29.69488728635767 25.818355759452377 24.383547137140273 -1 1 0
722 1 27.296772933144908 25.309285391637797 26.300203783766495 -1 0 0
2529 1 26.65656117328705 22.042379244162944 23.020559732708886 0 0 0
2723 1 28.28371793935505 24.27187208034181 29.20802880029936 -1 0 0
2574 1 29.344444760840293 20.719201520915856 27.528605086531968 -1 -1 0
2426 1 27.30789834043362 22.281405315243187 27.701760864502116 0 0 0
2167 1 32.29519742191402 22.390305295502532 27.48570242389962 0 0 0
2626 1 29.523705902443158 23.61742071995769 26.841879870507917 -1 0 0
1280 1 31.336861757605156 24.994634122874682 27.9440298116751 0 0 0
1654 1 27.387732354184365 21.835365488654013 30.404952324882675 0 0 0
2055 1 32.55868339035901 24.202805311180043 30.21077068549466 -1 -1 0
1357 1 32.06369464628275 26.6321753112532 25.633903757755537 0 -1 0
1891 1 29.046505327445168 26.78887794615809 27.599078267974196 0 -1 0
2117 1 30.463538467975855 25.344841922911215 30.794768467344277 -1 -1 0
2534 1 4.4512443987164 32.27546893675747 30.375390263039897 0 0 0
2859 1 1.0870009056799728 32.65060793830954 26.44851174700466 0 -1 0
708 1 1.3435962528958754 32.557924394176375 29.6557887592872 0 0 0
2429 1 3.7863531262001264 0.35746936947937047 25.973543123022385 0 0 0
2170 1 4.22129929070617 28.686399565306434 24.822959021518024 1 0 0
1199 1 5.5115505813269134 31.242521239400116 25.57462187195597 1 0 0
1235 1 3.438217492855728 31.724091338885366 27.71809518461763 1 -1 0
1077 1 33.093545460116964 29.33674473861377 24.53159173715093 -1 -1 0
2585 1 3.3810388086181544 31.338517618042513 23.53371295524929 1 -1 0
2662 1 1.7849410187071222 30.405146647115284 25.76037873910964 0 -1 0
2193 1 1.625165420477011 27.604919896265105 27.04008241466094 1 -1 0
296 1 0.7146189275668028 29.7926396906282 28.702664838397254 0 -1 0
879 1 0.6043780910364436 27.725503637925826 31.018607887332355 0 0 0
1167 1 4.35823675641365 29.11100260034753 27.28976152788323 0 0 0
1060 1 6.764443253158067 30.6603559286479 28.03211081280012 0 -1 0
2471 1 2.8386723503711595 30.1340791164723 30.211878985533968 1 0 0
1505 1 10.957634418700229 29.28274492986512 29.866113388556222 0 0 0
2417 1 6.465042581412242 27.102617130930838 29.054142011251 0 -1 0
589 1 9.156433667396533 27.75075093080432 27.901286643859287 0 -1 0
821 1 8.623210641973834 32.924471962603945 25.634360853211763 1 -1 0
710 1 12.454934744820063 31.155722824844297 27.493997954666636 0 0 0
2314 1 9.520379413041892 30.980942092987355 27.65048852486549 0 -1 0
2078 1 7.220141356806187 28.757373835947174 25.823131530571512 1 -1 0
111 1 9.695953575140878 29.974091542020005 25.180790227133357 0 -1 0
1922 1 11.968255776088926 32.26142679704533 30.184506931303627 0 0 0
1758 1 11.926698865090124 28.573691096605682 26.821818383545622 1 0 0
1487 1 8.556497644213744 29.469501459766633 29.711677942651914 0 0 0
2140 1 13.235779480656177 0.21850892963020543 28.255287627029894 0 0 0
1194 1 8.952588754367092 32.536013765569464 29.551148982548003 0 0 0
1645 1 12.484737307815262 30.398059960226313 24.756467728899022 0 -1 0
2023 1 14.50901299986553 28.63369674377132 27.605300383687293 0 0 0
1705 1 13.106550229276412 27.633550723653798 30.006532439419278 0 0 0
873 1 11.180107091686446 27.43857452679907 32.78815182426258 0 0 0
1171 1 19.09303042397354 32.903587628423935 24.308902637644653 0 -1 0
2043 1 20.337059489221954 26.941296144840162 26.480241230938425 0 0 0
913 1 14.185612358191626 32.43756930721131 25.61787675024505 -1 -1 0
2138 1 19.20759214458863 26.18909623351129 24.460102911772932 0 0 0
1147 1 15.798506207623266 30.10533164991888 25.39305836950299 0 1 0
2212 1 17.19911091463457 32.52295711770578 26.238072064003813 -1 0 0
1226 1 16.46319716761796 30.431798771047244 28.24263990492194 0 0 0
2152 1 14.016755600468317 27.594673287578914 24.93265441373165 0 -1 0
729 1 18.934844266315235 30.733267592474437 25.11979231089681 0 0 0
1029 1 18.58019123704574 32.35478808393259 28.71649832097991 -1 -1 0
1476 1 17.43740726261311 28.224082534892897 26.760191439817067 -1 0 0
1787 1 16.44949879881706 27.708622534512806 24.060404534768406 0 0 0
1671 1 15.455344063705503 28.804067104124947 30.34529479225957 0 -1 0
1887 1 24.276320549656088 -0.1375054876107196 23.567008873276084 1 1 0
1390 1 24.89877445171225 28.289634207969577 23.450977604460324 0 0 0
696 1 22.650192232707145 25.971567634992468 27.52595173896204 0 0 0
599 1 21.310082032074614 30.05927150650309 26.187156818111823 -1 0 0
2995 1 22.056669645726654 28.930595412863294 23.546573152733043 0 -1 0
1045 1 21.742377212626025 28.782654715608537 28.67626938395199 0 -1 0
2069 1 19.498603712607107 29.95514052226835 28.125530732849715 0 -1 0
1933 1 25.744374652472473 27.106737343314393 27.48082048213665 0 0 0
1362 1 21.69415823725768 31.742341854694413 24.178318282653443 0 0 0
2131 1 22.490384350558895 31.593101038684452 28.37021922205686 0 -1 0
1931 1 23.287257910548817 28.63386534388532 26.006958154840135 0 0 0
1783 1 24.677371137046965 30.088961137660203 28.23486617697058 0 0 0
2219 1 23.31358296569076 32.20057925139824 25.990660332663104 0 0 0
1188 1 25.976353458294803 29.44476270634421 25.79097807566232 -1 0 0
955 1 26.151800783046212 32.06773240218696 26.007356648562876 0 -1 0
2272 1 24.415905909128472 27.34082711378536 29.817031104413832 0 0 0
1971 1 27.27973350584107 27.4595422533961 24.77690474579433 -1 1 0
1824 1 27.303998435338556 27.024835834870508 30.02806964891998 0 -1 0
1293 1 31.280407909040893 31.6935900295165 25.414717478451806 -1 -1 0
2405 1 29.222756717968366 32.248468253123455 23.751813548905304 -1 0 0
1296 1 27.149191711384635 29.137307326682052 28.05694211359931 0 -1 0
1920 1 29.527118478292365 31.611041481095608 28.276546700120313 -1 0 0
706 1 28.291140862433448 30.704468456906387 25.79470271464809 -1 0 0
1641 1 32.21862644312301 29.201876403248715 27.0986376035053 0 0 0
1840 1 30.0240710283968 28.606767335131238 26.045877643499292 -1 -1 0
370 1 26.83847163149092 31.70097273484529 28.548621982959485 0 -1 0
1757 1 29.718602718740808 28.997992178158203 28.952469155195544 1 -1 0
1143 1 29.178544984174412 32.020732428072314 30.709622121396894 0 0 0
1871 1 6.630651391268364 5.486649515402802 30.344602595688247 0 0 0
1963 1 2.7617626804847033 4.66259698717695 30.940549658122997 0 0 0
3181 1 4.585942600764046 3.002986219981981 31.21261988687497 0 0 0
989 1 1.1677167253873795 2.746597074700367 33.05036347889462 1 1 0
771 1 4.267877710754031 4.604614306602738 33.40175447780564 0 0 0
2558 1 4.1764627649858515 2.1061088614674515 34.323759858302324 1 1 0
1855 1 1.6746299199876913 4.564163825357266 34.38609775555265 1 -1 0
723 1 -0.25825939487767946 4.896866705544588 32.092483965185764 1 1 0
3237 1 1.7750391798470948 0.5243032159415154 34.927520060964426 0 0 0
1291 1 -0.2410316560103709 2.0283144118057947 35.261134249720435 0 0 0
2770 1 0.6294848586215315 -0.06266432168570325 32.45651868693446 1 1 0
1651 1 1.9712767446202306 1.6567631649620769 30.442870065981737 0 0 0
1262 1 4.064235419991303 6.7444270587865445 35.0727257934663 0 1 0
1672 1 32.94919999944015 6.3430905558193675 34.582683965569814 -1 0 0
2003 1 2.368634660275862 6.842539070808891 33.18615679768279 1 1 0
555 1 5.436736968222332 32.63793631319753 33.21685699460378 0 -1 0
1522 1 1.9956743305876676 2.297013117600598 37.03012394500493 0 1 0
2067 1 6.613937348592667 0.48648679009049656 30.399138011759028 0 0 0
648 1 10.606336398489528 0.8609105057009009 31.11894177264999 -1 0 0
1899 1 7.110223647493162 3.15015452231861 32.46053013449682 0 0 0
1663 1 6.076683880165224 4.430823816452338 35.14031435553608 1 0 0
2505 1 6.109987656405909 6.655921808657019 33.02268153100733 0 1 0
1962 1 6.834161348740924 1.224281319619339 34.675905817903406 0 1 0
994 1 11.004407391212924 5.044335431323034 29.7557125186605 -1 1 0
715 1 8.643540919837502 6.021522748519858 32.10650902015422 0 0 0
1815 1 12.785093360616962 2.557469404067812 30.972977584131193 1 0 0
1166 1 9.719240768143875 3.5923689054945327 32.00893735430628 0 1 0
1875 1 10.358535416029486 5.283582393620459 34.22962588242576 0 0 0
1180 1 10.19477063535631 0.22103264038438958 33.856146290114 0 1 0
1080 1 8.101887366267318 6.851557195696994 35.02345472704838 0 0 0
2141 1 8.81948541513904 6.726828768248877 29.46685902616918 1 0 0
2342 1 17.194797911071017 2.19701430816797 30.535093688186684 0 0 0
1716 1 12.663696908784008 0.03711129409961788 32.59329352430264 0 1 0
1409 1 12.055885485077301 2.488597448035571 33.64663294974231 -1 0 0
560 1 17.081754939104883 6.2701108043220835 30.799003464485896 0 0 0
2330 1 12.476885896257672 5.065035580831703 32.32068315384781 0 0 0
2063 1 18.5744639023755 -0.14534661367039595 30.933077569140266 0 0 0
728 1 19.044251451385595 4.244607144989394 30.843988407946885 0 1 0
2645 1 14.536536752472326 4.8451871863061085 30.808937223338923 0 0 0
1196 1 15.076797955330028 2.3484081491848694 32.52192714797968 0 1 0
2228 1 16.615223992663285 2.050180981347587 34.57194824530033 0 1 0
536 1 14.334251425068718 4.264397706391132 34.35572034642704 0 0 0
2396 1 16.665883734615473 4.301720549986449 32.67756209792647 0 0 0
3310 1 14.215043823436936 0.37579935591550256 35.04168870183879 0 1 0
2945 1 16.5390858694016 0.03368681898222216 32.714927560380914 -1 0 0
1998 1 14.365093766755075 0.4082104707962261 30.69706392288644 -1 1 0
1789 1 18.794553535471735 2.0213277669805394 32.91179135667583 0 1 0
1746 1 18.67527254296439 4.239002285185095 34.653011846678304 0 0 0
2553 1 18.834938925682007 -0.004785823171002354 35.08841343837491 0 1 0
772 1 22.00559600311758 0.47130404863322006 30.47399121683129 0 0 0
1327 1 19.82059916920388 1.8490331638529938 28.87182932544041 0 1 0
822 1 21.01065620595702 4.772168679478909 32.98666834354392 0 0 0
1377 1 20.911682369663875 2.4477526653449324 34.44845834415682 -1 0 0
3105 1 23.186811453487227 4.302141084086831 34.61353702869965 -1 0 0
2975 1 24.921603820697705 2.2964497070222203 34.84291445346799 0 1 0
2442 1 22.527354409503122 2.5401023981564816 32.456650385296925 -1 1 0
2266 1 25.535731976889107 3.963465974252605 33.102412014554616 -1 1 0
235 1 20.55507409360868 -0.042109220995240976 32.74664166758603 0 1 0
2481 1 22.99513594932928 0.3515720020527538 33.87924484853682 0 1 0
2757 1 25.19481855742555 6.248748187042235 35.043725911154176 -1 0 0
2480 1 22.69065300286648 7.015440127990688 33.250110152305886 -1 0 0
2220 1 20.587062422977258 6.711155537295747 35.02222629617968 0 0 0
1328 1 24.880003229137067 0.23280613018028792 31.954418022547095 0 0 0
325 1 -0.2223800886507062 3.214052952748138 30.147372700357238 0 0 0
1493 1 30.89542409050202 3.8220465003991686 31.212186584719404 0 0 0
1134 1 26.030725011859577 5.359513845360655 30.495604277197057 0 0 0
1459 1 27.06393125535529 0.4347278657742615 30.36932348982491 0 0 0
1272 1 27.087180016092127 2.0413611393562108 32.27731528138833 0 1 0
2617 1 28.570006285585297 4.669079501180059 32.767210456760814 0 0 0
1436 1 31.300677448076453 4.421470691292413 33.82876389141257 0 0 0
2257 1 27.656457356047465 3.644977788007339 34.94287798541579 -1 1 0
1851 1 30.12591362031002 1.8416511426036477 34.56108683740053 0 -1 0
1350 1 31.776078445391843 -0.23074150783702407 35.32954216056581 -1 0 0
1756 1 31.835856237497783 1.8357501384073174 32.75496354081856 0 1 0
1241 1 29.36002099775599 0.7872130312477108 32.32244860354108 0 1 0
2311 1 27.47327808572399 0.5418626092905766 34.22572907590305 -1 0 0
2005 1 29.50754528020605 -0.17037126401045047 37.66207728964086 0 1 0
776 1 4.409535391906983 6.926351511607566 30.744097179205248 0 -1 0
2680 1 0.18247348916014458 10.543291355768003 29.596873475074858 1 0 0
1548 1 0.7025968302351226 6.774624293931305 30.221087737103492 0 0 0
1412 1 4.484826463625751 10.435216879352827 30.43553409365969 1 0 0
541 1 2.276484629397697 8.74257475961969 30.765007572069205 1 1 0
2059 1 1.9341613761744472 10.732854144712947 32.071334651879454 0 0 0
2337 1 4.720905459832385 8.99062726811067 32.55204097152463 0 0 0
1185 1 3.7919579842879165 11.091175430049569 34.266445257448005 -1 1 0
2011 1 2.1184200208416692 9.002896373962498 34.320522540466875 1 1 0
1584 1 -0.08521512586150816 10.601613122447066 34.746004943159285 0 0 0
1660 1 -0.2562132340223826 8.659667022582006 32.807102350025126 1 0 0
1220 1 1.8785784037357944 12.782567255158197 34.944336406610724 0 0 0
1616 1 32.24549892147439 12.810279044417534 30.061434068704934 0 1 0
2838 1 3.84180588562876 12.601751922529207 32.27474000916546 1 0 0
2551 1 2.032514770491112 12.856626430256982 29.95259977884981 1 0 0
1934 1 2.3164509819717236 10.534148823552878 36.75280043019848 1 0 0
2425 1 11.26977757597467 7.543516459740221 32.7566590622005 0 0 0
2341 1 12.905482931490042 6.449899360777025 34.980047220756255 0 0 0
539 1 11.089221888359004 12.97626625621629 30.569336305677325 0 0 0
1498 1 9.934173330715831 8.927393913077962 29.562454765641707 0 1 0
1662 1 6.229942200141273 12.940294697090767 34.52906509667026 1 0 0
1751 1 7.028363973431821 8.45150120296914 30.873936937931337 1 0 0
1878 1 6.471736893042039 11.101500475742036 32.4658361358573 0 0 0
2926 1 6.175763519424752 8.79631056748551 34.77901616219818 0 0 0
1743 1 8.720137034316656 8.666952257014255 32.95377124722862 0 1 0
2562 1 8.350602184699673 10.856675793980784 34.65011235250535 0 0 0
2065 1 10.69543655345158 8.8640075199935 35.23372368924059 0 0 0
1055 1 10.84342506659349 10.555641274559227 32.77244342163582 1 0 0
2449 1 12.726763360289148 10.577139437210478 34.62470148116193 0 0 0
2700 1 10.565664491805984 12.757800969164398 34.534550063531896 0 0 0
2697 1 13.23695004436315 12.04871219588611 32.22388482606312 0 0 0
1818 1 8.541357320564751 12.66338670315214 32.72121716206968 1 -1 0
2454 1 8.376776364179266 12.460934626239725 36.56622353568499 0 0 0
1717 1 15.169290950407342 8.330308683926257 30.12467746427473 0 0 0
2048 1 18.76577588763251 8.480328236348173 30.938739828276926 0 1 0
2181 1 12.690774814511684 7.167162016695144 30.54229481393516 0 1 0
1559 1 16.491441139661195 6.6009058569120915 34.55608076505347 0 0 0
846 1 13.658039036939233 9.222284653133412 32.15747169737261 0 0 0
1129 1 14.368203530063484 11.373987343227121 29.472545878970365 0 0 0
1141 1 17.04108880745505 10.317042857649154 30.4278846687982 0 0 0
2853 1 18.569400148029 6.543211334709046 32.90492372028002 -1 0 0
2418 1 14.838993756409044 6.750064804379137 32.77176499740322 0 0 0
545 1 16.687329190977135 8.735451340608925 32.88842377642217 -1 0 0
1653 1 14.60225931278013 8.419858208616262 34.80119744775421 0 -1 0
1761 1 16.343283820935504 10.542936335288003 34.938732433362865 -1 1 0
1127 1 15.794909688779594 11.262486018138853 32.434206766014974 0 0 0
1939 1 14.489469415329847 13.000627738812168 34.62460564975436 0 0 0
1941 1 18.51045379494191 8.664013194884413 34.78924016996519 0 0 0
2925 1 18.605869910003264 10.867276939011902 32.62915500361517 0 0 0
2403 1 18.50471009711098 12.763973195461908 34.78457560192096 0 0 0
1286 1 17.693824917734116 13.62825988418812 31.988155201801312 -1 -1 0
592 1 20.81309846073735 6.741709200026446 30.779272344709856 0 0 0
2602 1 24.375286572178567 7.630075255836547 29.43137346510693 0 0 0
1886 1 20.896869393696214 10.32462307826461 30.921393756528946 0 0 0
1545 1 23.36421285593278 12.462241359500464 31.30709627238574 -1 0 0
1627 1 23.115527420670293 10.489198340844784 33.18728544291035 0 0 0
1083 1 24.97233103247569 8.56874524922903 32.860914707609275 0 1 0
1277 1 20.73363294583421 10.501497011581721 34.711691554746075 0 1 0
1877 1 21.051697487122436 8.627325560421147 32.653630156410294 0 0 0
1811 1 26.611529479235966 10.655696523959074 34.0941040152348 0 -1 0
2661 1 23.179204349216146 8.932700127802848 35.45452534576826 -1 0 0
801 1 25.84358676087767 10.904762341898582 31.493817447517007 -1 0 0
2433 1 21.13346373471061 12.9940535997748 32.867572646935734 0 0 0
2423 1 23.45915913724417 12.802949435870696 34.442493734995686 0 0 0
1980 1 25.881958135728514 13.182006528426792 36.98616063006115 0 0 0
1561 1 29.262616074782052 6.214224505476713 34.96427068008937 0 0 0
1865 1 26.89203701062962 6.476913801513562 32.95994299245639 0 1 0
2861 1 31.374542148136996 6.9117759355895805 32.47384859435478 0 0 0
1033 1 25.889175881485254 10.23842170759694 28.945511639016903 -1 -1 0
2154 1 29.18454437740375 8.032158540636631 32.374874297195994 -1 0 0
1631 1 31.40020026170271 8.547845047683586 34.6289265706788 0 0 0
2298 1 30.931478271196337 10.666752355371116 32.16787154077125 0 1 0
1426 1 27.96270352296534 8.542448365756 34.53257847634785 -1 0 0
2923 1 29.43647848007379 10.835619005241194 34.61802947562454 0 0 0
808 1 28.25894229370153 13.35219122061057 34.607948553441084 0 -1 0
1292 1 28.415242716248983 10.693181836653713 31.465135185704412 -1 0 0
1925 1 31.608001283295366 13.058359538875997 34.90409151132554 -1 0 0
691 1 4.276151670865554 15.032510439770881 30.773245284511827 1 0 0
2194 1 -0.013693832077559113 17.615506705808063 32.27604396369554 1 0 0
2329 1 2.0081849062565524 14.766460809889688 32.36445974880459 0 0 0
1859 1 3.9014481721624255 14.499344968121111 34.31293547854873 0 0 0
2074 1 2.441192553000254 17.081141012491525 34.68873950243076 1 0 0
796 1 -0.012107461066454096 12.566569787495679 32.79880050665011 1 0 0
2440 1 4.481615908542735 18.886660112216003 34.46552484823447 0 0 0
2112 1 4.203977646230948 16.568716298494248 32.69932854716598 1 0 0
1471 1 5.968995533751555 16.391743634219505 34.79880335141819 1 0 0
1804 1 6.724959415631143 17.242323397846196 30.445415593702993 0 0 0
1107 1 6.266559672058449 14.552798905025313 32.71630958296636 0 0 0
2987 1 6.337562036690049 18.148375090587617 32.92785673231844 0 0 0
2382 1 0.6410220526593227 19.89343565249579 34.16511971211479 0 0 0
2610 1 4.7706691903636305 16.45292545578109 37.269857823596055 0 0 0
1306 1 0.3286473533069948 17.195254170962357 36.577151070132146 1 -1 0
2998 1 8.188036341530376 19.329270604908377 31.08695564031863 0 -1 0
1990 1 8.083250848845957 14.127451810594385 30.24084500423874 0 0 0
1251 1 10.543950278063818 18.2976571361704 31.954170780521462 0 0 0
1475 1 11.426183768828736 14.932566922361335 32.11371912892001 0 0 0
2186 1 8.660809185770711 14.782459565247125 34.575690331126026 0 1 0
1715 1 8.468247010580704 18.687987580874083 34.412806931174046 1 0 0
1892 1 10.506921114703138 16.752518179832517 34.60848804211508 0 0 0
1821 1 8.597233241331097 16.351936419903264 32.02769471635081 1 -1 0
1863 1 12.434692903602436 20.06689100691586 32.570829223801226 0 0 0
65 1 12.622636038498802 14.592664312331657 34.72086226718044 0 1 0
1945 1 12.658258317708961 18.80351385464091 35.33342956284334 0 0 0
1004 1 10.459266420190676 14.731076387897758 36.62341825746682 -1 0 0
1421 1 12.99409726572114 14.569281703999374 29.853208502380486 0 0 0
1514 1 12.976588964681252 16.742655538694578 33.28008373627085 0 0 0
3250 1 15.406061544812205 16.71758098794161 30.666074995980484 0 0 0
1689 1 15.341667922383767 13.264263590667444 30.729970641926233 0 0 0
2264 1 14.852692851595659 20.103626297775367 30.84095562821081 0 0 0
1586 1 14.64140261650142 18.80043124794777 33.346376000764074 0 -1 0
1418 1 14.761188751662198 14.934939822406896 32.531812411057494 0 1 0
3067 1 15.178731764627685 16.56778497665855 35.076122213846055 0 0 0
1964 1 16.97806082137263 14.65889348333271 34.42806922627731 0 0 0
1997 1 17.061247250291817 18.94161606512351 35.207010297582 0 0 0
2060 1 18.552619717289375 16.573097801667107 34.951287173173746 0 0 0
1648 1 16.856489523437563 17.391649502776747 32.64079749202233 0 0 0
2029 1 19.671640891157598 15.929050770720533 30.052812232527334 0 1 0
2201 1 18.03921904739437 18.313462694185812 30.11310289706843 1 0 0
1396 1 18.97210868590286 18.719754753022833 33.30953921511829 0 0 0
2013 1 18.93843843965086 12.413083993486884 30.316839398468744 0 0 0
1640 1 22.600182734920732 16.998788294995514 30.762093318567054 -1 -1 0
1638 1 25.82711171703898 13.226186417384097 32.613950362732425 0 0 0
2472 1 25.114383762063746 19.861851770692212 30.79670187662452 -1 1 0
2077 1 20.983857981128423 19.40091975090992 31.31705173156372 0 -1 0
2307 1 23.480764696200204 19.18300358066817 32.88257811759405 -1 0 0
743 1 20.350312665014062 16.78485348320813 32.419607540847615 0 1 0
1070 1 23.217775786432146 15.313821418547818 33.00948355395151 0 0 0
396 1 21.29836645791075 18.546988852900515 34.954529037623615 -1 0 0
2538 1 25.348309090683642 17.542961512567192 32.42783683416666 0 0 0
2203 1 25.53543172755908 15.055402599616688 34.579271348061276 0 0 0
1665 1 20.89586710278473 14.70203749697933 34.51280455435986 -1 0 0
2084 1 23.672982530379613 17.524050029759177 34.962586507290176 -1 0 0
3246 1 25.764970862188992 19.41400088356678 34.1267588951787 0 0 0
1547 1 25.772163053532942 16.62935064687032 37.300532083720896 -1 0 0
1073 1 27.434503532555606 12.981665662818981 30.13347283010463 0 -1 0
1244 1 0.47790081090956793 15.109218423640376 34.57206857186696 1 1 0
2124 1 29.914926318319356 13.190103516211455 32.35418357566048 -1 0 0
2684 1 32.12439475073004 14.862538480234457 31.993784765280175 0 0 0
2058 1 28.16255746412386 15.316943928835704 33.15793216212169 -1 0 0
640 1 27.196585689014167 17.309604922793667 34.75905777227533 0 0 0
2306 1 32.22486436662983 17.963830729117156 34.51081437665101 -1 0 0
1728 1 30.56870898122321 15.678897625574768 35.00432640884542 0 0 0
1960 1 29.545531225038033 19.162573388620867 34.82897716333721 0 0 0
2854 1 30.266235945334067 16.976714969677904 32.172560565622476 -1 0 0
2485 1 30.968552116959636 19.30765361999713 32.53720357809182 0 0 0
1027 1 27.975821664728436 19.675429496154678 32.504549209819814 0 0 0
2692 1 31.741389768816653 14.9192222524096 36.9979423921676 -1 0 0
1585 1 31.62951626144864 19.37525547275604 37.188840384117164 0 -1 0
2443 1 29.603146183630503 17.185115618073198 36.92593738967355 0 0 0
1422 1 28.056169312606663 15.076409068059743 36.70210691370293 0 0 0
1812 1 0.9647575582567572 22.68116664505436 29.436493233727333 0 -1 0
1434 1 1.6036499595562033 25.78476868786395 29.37865680229136 1 -1 0
303 1 2.8242891868974316 18.75781108580485 32.571812843703405 0 0 0
1889 1 2.4217708895722914 23.78106781701815 31.675118328145945 -1 -1 0
2279 1 4.487524124706755 24.672361331366044 30.1814626275848 0 0 0
2436 1 3.475118683382997 21.493990321441416 33.23198915159603 0 0 0
2209 1 1.6377305062673555 22.52174542739899 35.12424510169746 0 0 0
1678 1 5.19922210429828 23.553462351213994 34.77279781731837 1 0 0
2543 1 2.886156616539268 25.04890115721555 35.402389312367674 0 0 0
1427 1 4.403962499134467 25.290075268578956 33.036873210029846 0 0 0
2100 1 0.794673192863068 21.433126150001044 31.96932223132934 0 0 0
2660 1 0.2690576243232564 23.99158004172974 33.640957504197615 0 0 0
1284 1 5.472066869546487 20.644502663500063 31.915271150297716 0 0 0
1556 1 6.279484567449941 22.99013643231873 32.387323443624545 0 -1 0
2439 1 7.061492762678634 25.02584698472892 35.34953335592678 0 0 0
2375 1 6.486679495512889 21.226590743552393 34.493776745979126 0 -1 0
2244 1 7.5403821339402795 25.084299837707153 30.088427080080447 0 0 0
1470 1 9.748847293767518 20.7962790648245 33.46187490354759 1 0 0
1642 1 7.3229705247981745 25.927044494771575 32.85245566909548 0 -1 0
1506 1 11.81078384951227 21.383989798163846 35.25939250639873 0 0 0
1785 1 8.736372693670004 22.561917810615363 35.363510171921796 0 0 0
1448 1 10.377256783763189 24.571209235930784 34.71853011548027 0 0 0
1324 1 9.326588858905824 24.638080017921872 32.23258860113043 0 0 0
1451 1 11.60768830881362 23.13024477420407 32.91570359122165 0 0 0
1987 1 12.856442027776 25.380260198643693 33.72266599318241 0 0 0
669 1 13.579765540314485 23.192085354413226 35.1976041299363 0 0 0
1834 1 8.587719595258985 27.15088218816005 34.7811425898491 0 0 0
1243 1 8.864610819857917 25.347077446953623 37.13100964329467 1 0 0
2121 1 10.852179033973918 23.120820789898517 37.5683714686646 0 0 0
2046 1 12.291408069603431 25.090845335020155 36.72292456129633 1 0 0
2598 1 14.566188596634541 21.85494996164225 33.03077329938136 0 0 0
1379 1 19.003806538904097 21.08053568835767 30.85103223135589 -1 -1 0
1830 1 16.890720282049095 20.264020532955502 32.70800250655615 0 0 0
1094 1 16.337831783753433 24.668196237083116 33.70110923202608 0 0 0
2268 1 15.463643503612026 21.2047698419145 35.47406895099585 1 0 0
1583 1 18.64803093696941 25.03388315942353 31.14748476407128 0 -1 0
2889 1 16.307165521842133 22.897880147771914 30.283094627511574 0 0 0
2363 1 16.880046584576675 23.227567160391008 35.837810064912524 1 0 0
2185 1 15.066570170514249 25.36840750225135 35.575430969978676 0 0 0
2349 1 18.712646819576953 25.121224778986242 35.374099456805546 0 0 0
1848 1 17.858062811121712 22.966184585970723 33.074731949417 0 -1 0
1870 1 18.842868122813456 20.888372997076022 35.441853443021 0 0 0
1712 1 16.684524923792537 27.480164750140126 35.13773341149373 0 0 0
1570 1 16.516347062510732 26.473681720145667 31.806608365761083 0 0 0
2177 1 17.121015777840814 25.414580768688417 37.6115675401889 -1 0 0
2208 1 19.166615461089776 22.960318388432807 37.58806314336199 0 -1 0
2325 1 20.819802062012222 23.661015561074166 31.39574799225656 0 -1 0
1833 1 25.606069206009014 21.740152566050128 32.774870703364726 -1 -1 0
2250 1 25.412196804151332 26.161304588680068 32.31665084515537 -1 0 0
1320 1 23.023707525330174 21.237643459879543 34.744022284416 -1 0 0
1544 1 20.94813868390699 21.43950173533892 33.143824195669154 -1 -1 0
1630 1 22.88751283684564 23.686198292164196 32.971358472293474 0 0 0
1463 1 23.504904053555258 25.72667789195527 35.25825221727686 0 0 0
3069 1 20.74662796578626 23.502145416437735 35.18552962165115 0 0 0
3037 1 20.178125527442166 25.53598465860101 33.15265837055226 0 0 0
1958 1 25.061825193029698 23.652775714883553 34.66913802195821 0 0 0
1843 1 26.00424262674263 25.373101743340765 36.65716705777893 0 -1 0
2720 1 32.31274334217608 26.042928027530376 32.458590542957 0 -1 0
1849 1 30.200387197123156 22.6261720895477 29.807461072589806 0 -1 0
1056 1 32.39399508113492 20.712763604958763 29.89239050220085 0 0 0
2174 1 27.505281648848772 21.324701120195435 34.88065091648783 0 0 0
2748 1 27.834142051992693 24.15790529816533 32.09893857002575 0 0 0
2450 1 27.57908162124336 24.643255462066392 34.67549545109251 0 0 0
1679 1 31.861651395898804 22.47153328777831 32.38299411415326 0 0 0
2184 1 32.07100179625045 21.692907646138394 35.06005846848258 -1 0 0
2002 1 29.429194268335312 22.157652666565347 32.56338349943039 0 0 0
1719 1 31.521689692578512 26.028920582781215 35.49869081942768 0 0 0
2967 1 29.705413267781633 22.766849430903516 35.29923338645585 0 0 0
2359 1 29.869366665721017 25.58358647603542 33.38458226933785 0 -1 0
2714 1 29.553157459896646 24.992306027471795 37.22540859088332 0 0 0
2006 1 31.82286640630469 23.515326451682384 36.961017155366946 0 0 0
1177 1 3.428961196937499 0.507707194723787 32.492262055236004 0 0 0
1495 1 3.012505752922669 28.457490335751597 32.61040175732656 0 -1 0
1725 1 0.3499752895501773 30.601393806936358 31.827370652510727 1 0 0
1832 1 4.528896507352194 27.45298553391474 34.92282583973824 0 0 0
2548 1 2.6155772491609603 29.195208436247203 35.3542199511115 1 -1 0
1635 1 1.81831865760201 26.191780206916604 33.13363825934532 0 0 0
1491 1 4.600657229153476 31.965385451898808 35.50415059744669 0 -1 0
865 1 2.83302673982772 31.195623854384376 33.64884611786858 0 0 0
1509 1 0.42730117232579756 31.467489108403175 34.866320052182076 0 0 0
1667 1 32.00686490097207 28.59407746170998 33.089337371070435 -1 0 0
1724 1 7.190762999056392 31.370104177292784 31.04211704691136 0 0 0
2618 1 0.4620313093794595 29.36446830804914 37.254290569960204 1 -1 0
3326 1 2.6404155146612274 31.797042866251005 37.0454352568216 1 0 0
3045 1 4.632436666965287 29.7968568059886 37.00717671750608 0 0 0
2445 1 6.646607369974843 27.67555739774397 36.73816634882394 0 0 0
812 1 8.194007182729118 0.13326892982830058 32.33541149719211 0 0 0
1853 1 5.3958599217893894 29.85959990024773 32.46323688679282 1 -1 0
1766 1 10.126537181390548 31.486394070994518 32.23765700636191 0 1 0
2061 1 5.544725669141526 29.658682503507457 29.83293396137002 -1 -1 0
2062 1 7.707146401030014 28.62163035142696 32.51996184234675 0 -1 0
1744 1 12.412817709266388 29.949198654121062 32.002646571319296 0 0 0
2772 1 7.839797616198236 31.784488467952556 34.38346700654646 0 0 0
1742 1 6.862500047416733 29.477879581088068 34.90921975163768 0 0 0
2284 1 10.467921729869266 29.24973549437723 34.241718005002454 0 0 0
2231 1 12.291182537149124 31.442271691779414 34.638718211758146 0 0 0
2190 1 12.731565180988373 27.643716967807215 35.35543073183518 0 0 0
1423 1 10.856859059403854 27.345393652931236 37.14954193821373 0 0 0
2198 1 18.59693278606099 29.39661049303289 30.764811040767583 0 -1 0
2970 1 14.121757407464838 30.99569772479269 29.57092039324251 1 -1 0
885 1 14.304770206741416 27.633128985957732 32.68888251907203 0 0 0
1655 1 18.688567364699068 27.68691810271817 32.87213003518522 1 0 0
847 1 16.545532127481113 31.242175758641135 31.041697925949737 0 -1 0
2516 1 16.646085371879117 31.33638234441083 34.89949809023839 0 0 0
1238 1 14.670567954500505 29.617044452430743 34.81240951696153 0 0 0
1431 1 14.289229564710164 31.19143942833476 32.60840027365728 0 0 0
2096 1 16.65401522471849 29.414539336857136 32.91521866416076 0 -1 0
2922 1 18.881615685270344 29.982762813964985 35.006235793209115 0 0 0
2441 1 18.62451434463551 31.528472832652206 32.69526881028715 0 -1 0
1632 1 14.57368800556452 31.452868333893083 36.86422115449045 0 -1 0
2799 1 12.377056169882744 29.631541050985685 36.75107632352695 0 0 0
1942 1 14.885850970428688 27.670149861628932 37.37437501356777 0 -1 0
1612 1 20.681607848611467 27.2286965080994 31.036240279652855 -1 -1 0
1786 1 23.061136765400285 29.20747932365612 31.067082698375277 0 0 0
2691 1 22.95435625481252 31.430797050375467 32.44168692740697 -1 -1 0
2051 1 22.775197562704015 27.1576824484191 32.95131266079629 0 -1 0
2777 1 25.793332527010676 27.47458746199279 34.62653670539416 0 0 0
1023 1 21.213405158674725 27.436442097150902 35.487446384193554 1 0 0
2256 1 21.076539356021744 31.21883543713465 30.65230989918044 0 0 0
2052 1 25.002960273012874 30.809793501463695 30.609668333133 -1 -1 0
2115 1 21.572084652795418 31.41165507385174 34.8456723942001 0 -1 0
1610 1 23.414962157135623 29.261754084604743 34.8537109857529 0 -1 0
2483 1 25.065483017069884 31.529036848903093 34.92457552309393 0 0 0
1321 1 20.875659730073085 29.344028303016444 33.152363344793706 -1 -1 0
400 1 25.03766182992766 29.373118004609527 32.99782534664262 0 0 0
943 1 23.175887657968538 32.194287187754405 36.646554732096185 0 0 0
2401 1 32.506054312976524 27.112009125025907 28.97027854885165 -1 -1 0
2741 1 31.671362039729235 29.898898318400782 30.477707283234498 -1 0 0
2765 1 0.5395429379640247 27.23300483172379 35.06460263969256 0 0 0
319 1 27.439740842502186 29.78878523954002 30.69871114269271 0 -1 0
699 1 31.853920971364058 -0.23348039063595583 30.666771139580806 0 2 0
2362 1 27.87517556654471 27.43408676721312 32.90919404851657 0 -1 0
1443 1 30.165405093864837 27.791729434017753 31.183637708159186 -1 -1 0
1519 1 27.160381367544357 31.90679692558093 32.69229552387341 -1 0 0
1169 1 27.626513964798306 29.744930261825484 34.564556761397846 0 0 0
2136 1 31.368451102383176 31.9838110352727 32.900228814424736 0 -1 0
2200 1 29.617178602536804 29.754375692519584 32.69560646571194 0 0 0
1161 1 31.754678548144554 29.964903339290103 35.31969080475465 -1 -1 0
910 1 30.096958655221073 27.87963751781263 34.856283563840236 -1 -1 0
2592 1 29.413419471358804 31.91392447468524 35.13807964274049 0 -1 0
1555 1 31.6648301890397 31.745425745486063 37.71070200079807 0 -1 0
2650 1 29.574925957970443 29.52981963182449 37.32712286773404 0 -1 0
2045 1 27.26174312513161 31.40679846523888 36.925116067525536 0 0 0
2822 1 4.22213302909694 1.0151635194096045 36.60204618342026 0 0 0
1668 1 0.4842122821769717 -0.05811447762033137 37.02646793416363 0 1 0
1480 1 3.697683418705221 4.049782634761462 36.63198060096956 0 1 0
2304 1 4.659599927219072 5.01265077552215 40.99292495538719 1 1 0
3162 1 2.0242067456629544 2.410685196990792 41.042919499329706 1 0 0
1386 1 4.075251004397694 2.721982815826054 39.32934057516923 0 1 0
2787 1 1.9761482381174087 4.283898186966532 39.051260412785 0 1 0
2629 1 -0.1212102919871321 4.638567006833128 41.16387063640152 0 0 0
1775 1 -0.19949609575978744 2.3957774179554883 39.211220850269214 0 1 0
2569 1 0.26616222326980543 0.2559953441454584 41.1993678333634 0 0 0
2467 1 4.563324272355175 0.3855675810003884 41.20243706868431 0 1 0
2273 1 2.2796265460200305 0.09327922295651682 39.32460277219493 0 1 0
1549 1 -0.27149025669067134 4.251848355464413 37.01055977437401 0 0 0
3072 1 3.8759677819734257 6.226310432988954 38.33199882470902 1 1 0
2903 1 2.6591585362449965 0.6373565519581513 43.38448132333671 1 0 0
2520 1 6.7052892398846975 4.530128669041981 38.578543021404535 0 1 0
1748 1 6.182284444533887 2.268750481726557 37.165173830878814 0 1 0
2506 1 6.433190747511096 0.21740117652941832 38.92301364142696 0 1 0
2702 1 6.538111260203707 2.376317910800921 40.90744938194254 0 0 0
1800 1 11.678139152943581 3.79863853957346 36.470939387784334 -1 0 0
1601 1 8.242670557088761 4.50243533628231 36.44564407980306 -1 0 0
2578 1 8.595509320306064 0.6445993363848047 36.76385900874699 0 0 0
1411 1 9.44526043831089 2.617161426827815 34.85626929257787 0 0 0
2380 1 11.604152491140123 0.4122194152253099 36.108608846882326 0 0 0
1798 1 8.323225921390708 4.536304493309712 40.9552648587506 0 0 0
2800 1 10.736722451190245 2.566192673451283 41.09790080345095 0 1 0
2735 1 8.461109100088835 2.2879010320508724 38.668823444899246 0 1 0
2392 1 10.835536432049494 4.575999281493143 39.035580875912636 0 0 0
1897 1 10.483454018870562 0.11337467023106908 38.90692736907005 0 0 0
3294 1 8.421013131461814 0.45226326607951095 41.22570377963334 1 1 0
2616 1 12.944277873211734 4.333741660327101 40.85510171738091 0 0 0
2192 1 13.272341884827465 0.5307826150326447 40.91536724702759 0 1 0
3085 1 12.133723715124583 2.0523474413666745 38.19117280542802 0 0 0
2446 1 6.346492640388071 6.760399787122659 36.958197520353416 0 0 0
1869 1 16.703725670576866 0.3832544918139375 36.5829186602457 0 0 0
1937 1 14.192217028048411 2.5025211284931 36.39928482307418 0 0 0
2070 1 16.486611761022953 4.130007964762259 36.378672975469705 0 0 0
2611 1 18.8610926928919 2.1781183385239697 37.01512185501119 0 0 0
2798 1 14.838120544866596 4.250355786989838 38.47032451209133 0 1 0
2462 1 15.033438963801098 2.3235008562563157 41.084102751394525 0 1 0
2863 1 16.70236546052535 2.369442976663989 38.98518683082707 0 0 0
2579 1 16.80025175953351 4.4021606779533 40.92111607888182 0 0 0
2589 1 18.497312456167684 2.2980568330781517 40.710053734849566 0 0 0
2643 1 18.792205167906687 4.47357729677207 38.78846454647571 0 0 0
2761 1 18.925622960334675 0.19671506222394813 38.86467232110756 0 1 0
2287 1 14.710902584995237 0.626840902493941 38.52450239042705 0 1 0
2575 1 16.841229152391698 -0.024503366960385492 41.228237629422644 0 0 0
1873 1 18.588314303763244 6.531161874013674 36.50645494521297 0 0 0
1263 1 21.16463757849605 0.3096543983293947 36.87473819740672 -1 0 0
2577 1 25.69847668793829 3.799151836344995 37.181739114041996 0 0 0
2424 1 23.12259019654125 2.3504870252772343 36.846795277748676 0 1 0
1565 1 20.97416689541247 4.118240750145693 36.567567867372986 0 0 0
2966 1 21.044429633911385 3.909868642767823 41.01798813029101 0 0 0
2522 1 23.24660076790152 1.9976384221900185 41.21394302627614 0 1 0
2159 1 25.571734679833334 4.059485126798744 41.18860039219475 0 0 0
2871 1 21.090779671022478 2.3944847575848356 38.72256280444282 0 0 0
2066 1 23.57738977278088 4.041264560502516 39.326305133453744 0 0 0
2488 1 25.825511346404305 1.9189791033598125 39.064843857348954 0 1 0
2807 1 25.38317990552088 -0.20090732817303478 41.413653060681135 0 1 0
2990 1 23.463529667340303 0.5035419041942628 38.92567073299108 0 1 0
2110 1 23.380576415154273 6.457524765351308 40.51270965423591 0 0 0
2361 1 23.42999795453498 5.954431976788675 37.1905385433255 0 0 0
2882 1 20.723008120778793 0.8467664803486732 40.91306675094028 -1 0 0
1767 1 25.56080752440751 6.426549877739098 39.1088475886811 -1 1 0
2104 1 21.185364588934153 5.829375640742807 38.96380123510998 0 0 0
1591 1 25.965005406681463 0.24450715426480651 36.8268584859942 0 0 0
2332 1 23.364617238512015 -0.06492683154109012 43.70450281460094 0 0 0
1170 1 31.533827453174275 1.6800479450432304 37.30861571341968 0 0 0
1415 1 28.30788399113956 2.215874938755563 36.90071767261264 -1 1 0
2609 1 30.48317482338603 4.22250730191646 36.46760119762407 0 0 0
2586 1 31.210014843134264 4.352026907524383 39.05715858344719 0 0 0
2623 1 29.407766417292393 2.219521815566018 39.377585632977556 0 0 0
2497 1 27.648465208583392 4.4566460738976 39.02178168546191 -1 1 0
2883 1 31.692082214645303 2.370786701957312 41.38454049102452 -1 0 0
2591 1 29.377635166548025 4.283098406851036 41.20132377736909 0 0 0
2549 1 27.45111086764578 2.22494743553924 41.12961366997731 0 1 0
2812 1 29.469726434563977 0.12735057991354637 41.13339850795891 0 1 0
2079 1 31.841237293193373 0.12115125035890574 39.39191857690817 0 0 0
2301 1 27.38735123086454 -0.2013706812335343 39.288571377541025 0 1 0
2880 1 27.404751457217152 6.028777605891686 36.72863930620504 0 0 0
1790 1 0.017504539034209884 8.750054732404625 36.810943723344394 1 1 0
2640 1 1.6202111002381427 6.518977669178692 36.79393247317796 0 0 0
2343 1 0.09001644622382511 6.6581477222981515 39.35735265382862 0 0 0
2027 1 2.1491938539006865 6.290104064448079 41.28851565028769 0 1 0
2293 1 4.024455206308063 8.521894271660994 36.90264819005324 0 1 0
1895 1 2.03443693619614 8.502122939131802 39.04418354806643 0 0 0
2851 1 4.503868612863638 8.163377291368965 40.46650021020642 0 0 0
2693 1 4.352603270114644 10.668570551655444 38.802141109827964 0 0 0
2409 1 2.2885142699452548 10.57678993940432 41.034335512375435 0 0 0
2265 1 0.24469226670128383 8.857641729413304 41.17833783560372 1 1 0
3189 1 0.3770970556174483 10.816470019566255 38.915106827357086 1 0 0
2642 1 2.515633548707514 12.80683332098304 38.91924761161762 0 0 0
1884 1 4.067282004743472 12.945581147866621 41.3864981384275 0 0 0
2196 1 4.212406743780098 13.103663010552483 36.6575134176312 1 0 0
3032 1 0.14328117137976637 12.755604562827758 41.235189891368584 0 0 0
2641 1 6.30650177280239 11.151678673839024 40.96244566356714 0 0 0
2568 1 6.367537254419637 8.816036674720003 38.58516375938418 0 0 0
2336 1 0.4390802252083227 13.123904915708223 37.20243894228388 1 0 0
3138 1 2.2975151200881587 12.998156581477135 43.42940998864867 0 0 0
3185 1 10.450565544792605 6.4165243744343226 36.81116803697276 0 0 0
2550 1 8.480581074926365 6.810997052758945 39.16322555587545 0 1 0
2094 1 12.755476666166462 6.348973234003233 38.79551229859469 0 0 0
2317 1 6.68220830157783 6.633122554509566 41.0005566941728 0 0 0
1165 1 5.802602053127677 10.697101941520748 36.42535875101854 0 0 0
1603 1 10.808466614871884 11.05855755010873 37.27175677545492 0 0 0
1039 1 12.581948553774772 8.46704391906838 37.06051588095367 0 -1 0
2866 1 10.349826735638498 6.363392780936816 40.98194948304204 0 0 0
2379 1 8.541390258458849 9.187931775705353 36.93437830959056 0 0 0
2288 1 8.723274557259725 10.799203428319727 39.1575909933414 0 1 0
2605 1 10.580709648039491 8.753574058454376 38.79567193934584 0 0 0
2352 1 8.472561016135355 8.813873630145306 41.021868796296346 0 0 0
2278 1 10.564128112131607 10.762544910461745 41.38276350013876 0 1 0
2176 1 6.355946216126969 12.579178994531105 38.600991888528526 1 0 0
2540 1 12.936550604799937 10.655772995927792 38.97311460471738 0 1 0
2665 1 12.63898008562783 12.76989405750918 36.80165816465683 0 0 0
2837 1 12.52865108652992 8.511335775163083 41.10178475887809 0 0 0
2093 1 10.634963396808997 13.269473630425251 38.94195349050462 0 0 0
2893 1 8.323961055011946 10.634272299216532 43.68581277457985 0 0 0
2833 1 18.89831141913237 6.195947911182911 40.94287409446504 0 0 0
2606 1 14.66533634441977 6.234319928633979 41.17470460196991 0 0 0
2604 1 16.784145050747078 6.323250297040677 38.688676554436576 -1 0 0
1852 1 14.885287428999858 6.810886495372816 37.052247963531315 0 0 0
2646 1 16.396339992648905 12.888023855647486 36.4943901153276 0 0 0
1896 1 14.79776957475417 10.493521794817083 37.11278208377222 -1 0 0
1657 1 16.975676979997086 8.735189505124488 37.081720895837734 0 0 0
1806 1 18.875855881238483 10.812813292297658 36.92318333491946 0 0 0
2222 1 14.655486618400804 8.507114702474427 39.43274181016726 0 1 0
2795 1 14.86558502904534 10.60693282925176 41.22299261799015 0 1 0
2864 1 16.928227278251107 8.349952360668535 40.733058048871236 0 0 0
2010 1 16.803310302239712 10.854609406427487 38.71980264815192 0 1 0
2638 1 18.73529719142387 10.644325001913055 40.9370323599311 0 0 0
2706 1 19.010885306114787 8.791865515574328 38.76337957947337 0 0 0
2891 1 16.69069815614078 12.5582174750187 40.90039921178753 0 0 0
2168 1 18.8758931057425 12.710664612347983 38.818821500742025 0 0 0
2420 1 24.34485629901715 11.154261663594404 36.26701093845411 0 0 0
2413 1 25.521143637846162 8.352145492154941 36.650582800713295 0 0 0
1780 1 20.83736296277276 7.917568827853651 37.18556364199976 0 1 0
2030 1 23.450999202458057 8.466942849564447 38.294468606461606 0 1 0
2819 1 25.88089881591418 8.465067076227736 40.83810526010422 -1 0 0
2025 1 20.978760568410813 8.609449838276966 40.80452610857928 0 1 0
1507 1 25.3373201567595 10.400716138090441 39.03627375932387 -1 1 0
2195 1 23.34895975067036 9.87718693118177 41.222979224250075 0 0 0
2754 1 21.363205344253533 10.677548832311663 38.75054726849221 -1 1 0
1136 1 23.292086771539562 12.527190364301552 38.55499282992966 0 0 0
2659 1 21.0087515027609 12.160434319028559 40.88740715262285 -1 0 0
3027 1 21.67927737266811 12.346180089395077 36.50914244470267 0 0 0
2933 1 25.584849300095915 12.296596697276438 40.95989534233975 0 0 0
2658 1 27.798151383302734 6.351533685230264 41.170436751740425 -1 0 0
891 1 29.52258871159897 12.556088434532722 36.79118762928185 0 0 0
1882 1 31.413704259064126 6.83211932811994 37.099531277778034 0 0 0
2805 1 31.411691351825365 6.3124656491417355 41.11790608910415 0 1 0
2685 1 29.661467341851488 6.525861505699754 39.0068700639399 0 0 0
2286 1 26.902895526198495 10.677938744350753 37.1172764875544 -1 1 0
2582 1 29.36125175383802 8.887472667474775 36.73639282794734 0 0 0
2088 1 31.773609876279654 11.141418909232396 36.89809749275164 -1 0 0
1078 1 31.828744291821867 9.003945198614186 38.9340332188039 0 0 0
1861 1 27.75653147068379 8.547911693663423 38.8537105891279 -1 0 0
2260 1 29.5742291515728 10.584054750025881 38.84383247056915 0 1 0
1823 1 31.618271804482465 10.645011722842668 41.33448462423058 0 0 0
1856 1 29.556172485766286 8.617922315301797 40.876921324411896 0 0 0
2355 1 27.48483938202606 10.491636836836316 40.803788748416125 0 0 0
1825 1 29.487812681559976 12.427174784374968 41.17226000168065 -1 0 0
2143 1 30.952281015040512 12.966124525163597 39.0377192727245 0 0 0
1999 1 27.648552390997985 12.576805603274671 38.88180190447174 0 0 0
2092 1 2.227988976957657 15.598035726685543 36.890960555857376 0 0 0
2501 1 2.2552783096247957 19.22704149704588 36.537126995499065 0 0 0
2090 1 2.0682615149553776 15.146014184876341 41.2570236008762 0 0 0
2632 1 2.1237584444725095 16.93866660982944 39.28351211358257 0 0 0
2673 1 4.095096916002536 17.250232104261176 41.23354929075172 0 0 0
2781 1 -0.05308356688998807 16.929524881663653 41.36189024280801 1 0 0
2165 1 4.465774969116841 14.846989821042865 39.285650103270456 0 0 0
2205 1 0.169624540180546 14.585335754323424 39.32359821654331 1 0 0
2204 1 0.25955516558012093 19.13935658304943 39.04754274298799 1 0 0
2649 1 4.352298124991873 18.65928837745849 38.776194087082175 1 0 0
2463 1 2.209240876006414 18.92717689896454 41.22257082612918 1 0 0
2383 1 6.484637330438776 15.052622501016808 41.343917246653945 0 0 0
2981 1 0.18992952018665213 15.058770792703207 43.52158626074435 0 0 0
2495 1 2.0641801941520104 17.140962856021062 43.26196749026154 1 0 0
2597 1 4.604181159448479 15.172009650717186 43.062546477098 0 0 0
2347 1 6.3164730826140145 18.93709560011125 37.05997441067794 0 0 0
1845 1 7.939698896969309 16.793009692167946 36.72649163425733 0 -1 0
2422 1 12.792641035337883 12.465241629722076 40.91964857550405 0 0 0
2415 1 8.440179201693795 12.565254813641928 41.280636241396586 0 0 0
2259 1 10.216550095866884 18.81381289651162 36.55754091880271 1 0 0
1606 1 6.36919315755151 14.49604939059528 36.637026226128086 0 0 0
1693 1 12.31161644657687 16.517295449856316 36.55094596839667 0 0 0
3205 1 6.689746165513867 19.08046391918375 40.99198546074158 0 0 0
2572 1 6.220902307098745 17.150228729816956 39.35064359340262 0 0 0
3193 1 10.579582963711381 16.758036266796296 38.92249332450847 0 0 0
2157 1 8.11491178102394 14.669723068200867 38.87817159356685 0 0 0
2164 1 10.55570246405734 14.6245334875077 41.4068107799934 0 0 0
2163 1 9.09442959390414 16.736425727324857 41.14613869016536 0 0 0
2667 1 8.730466061238152 18.6794991640067 39.02708260187483 0 0 0
3142 1 10.147771425600322 18.974467516976713 41.22990508107507 0 0 0
2091 1 12.934293283994514 14.940153871909656 39.094610658567674 0 0 0
1707 1 12.76099884140151 18.650875032487995 38.436417747721116 0 0 0
2218 1 12.419467863351896 17.45014956889354 41.122637109581525 0 0 0
3149 1 6.1696829978233865 17.315958783730622 43.18615429612141 0 0 0
339 1 19.26851285997849 18.73705098769821 36.95307448561789 0 0 0
1957 1 14.972946663054966 19.002483191888608 37.020375949030196 0 0 0
1935 1 14.808929299859098 12.3884674719188 38.76399002380448 0 0 0
2885 1 16.84713760124466 17.330510201592038 37.202882636955806 -1 0 0
2130 1 14.790522618935926 14.724195620822286 37.02501768739113 0 0 0
1813 1 19.025100364074202 14.466173228734839 36.79643222056964 0 0 0
1684 1 14.837054772961258 17.06111117129409 39.04870545334271 0 0 0
2133 1 16.748237546633245 14.62656047411702 38.99242161144828 0 0 0
1808 1 14.498029065430769 15.06582689642509 41.01760428737078 0 0 0
2991 1 16.840349403998566 16.58821883034909 40.9957894240679 0 0 0
2676 1 17.004538560588113 19.263614686370804 39.65281111893112 0 0 0
2928 1 19.06560471531805 14.627777613762541 40.805778625108 0 0 0
2608 1 14.62970018452947 18.513781207457495 41.22940779390071 0 0 0
2470 1 18.70221731870992 16.405523168913604 39.05153451678483 0 0 0
2510 1 19.120344709816955 18.72117523343372 40.88717581405 0 0 0
2327 1 21.51221149509124 16.367473062201377 36.94599476839926 0 -1 0
1734 1 23.76479742011866 18.94408728374444 37.11318999710928 0 0 0
2898 1 23.53609774656694 14.881749575038418 36.469288624978596 0 0 0
3026 1 21.129829309014944 14.365866972426987 38.48098902666118 0 1 0
2767 1 23.558009934414983 16.295632067143654 39.28372351894439 0 0 0
2158 1 22.674873069830454 14.249433282050651 40.58957287625093 0 0 0
2818 1 21.248010042645692 16.776786756106 40.46280263665204 0 0 0
2235 1 23.435025956445287 18.403038054437424 41.081068433133545 0 0 0
2400 1 25.83014245916339 17.177353528544266 40.912392903258365 0 0 0
851 1 25.04632201701716 19.176676360476822 39.2972259045259 0 0 0
2671 1 25.515177285333124 14.655655537050084 39.42833640728962 0 0 0
2745 1 21.63967298516371 18.88515504940918 38.9902550305106 0 0 0
2109 1 27.096448310359296 19.376266466894695 36.98102898651477 0 0 0
1976 1 29.83981392336942 15.468224894133119 38.92317710999956 0 0 0
2156 1 31.315929150629536 14.848279376683317 41.172730234820335 -1 0 0
2753 1 29.49038301637673 17.254966597511682 41.10108739702639 -1 0 0
2682 1 27.64697739416918 17.00052160245224 38.786595947042215 0 0 0
2603 1 32.101041217874425 16.85850894096903 39.07635503514643 -1 0 0
2428 1 27.462006054691415 19.178311000374304 40.88556020299001 0 0 0
2886 1 28.137889874064378 14.670065222554657 40.72225006705472 -1 0 0
3036 1 29.389742740368323 19.1820114384848 38.64883721911598 0 0 0
2527 1 31.54748938738406 19.05278025926347 41.002670520819464 0 0 0
2974 1 31.290013612917285 17.018722099716026 42.96458902601589 0 0 0
1929 1 4.253996092500898 20.83400998160598 36.54492580348987 0 0 0
2035 1 0.781651420970959 24.9273803835909 37.00432137771914 1 0 0
2047 1 0.3143295532620465 21.131830173744632 37.09153650063962 1 0 0
1978 1 4.952650318676148 25.215546191571484 37.66977137479667 1 -1 0
383 1 3.221661212606089 23.3415649345305 37.253866383330504 1 0 0
1900 1 2.450862845185016 20.821351942203815 38.999733088502964 0 0 0
2448 1 4.920967585313792 23.147868865189835 39.55919331233062 0 0 0
2944 1 0.4359415779863034 21.139823641245833 40.99330327576345 1 0 0
2434 1 4.211750751897313 20.901432076968806 40.997183715362084 0 0 0
2410 1 2.4308812256300727 23.190848941227156 41.17234678084418 0 0 0
2717 1 4.411413244683222 25.551595511583983 41.50807372552076 1 0 0
2734 1 2.6174332378311633 25.3616063402161 39.391121963356596 0 0 0
2752 1 0.2205499385514714 23.27565569294804 39.10937611066212 1 0 0
2309 1 0.2964926682682648 25.511903855925613 41.504257553606855 0 -1 0
2432 1 2.1484326866631287 25.784634149459524 43.5419702220501 1 0 0
2919 1 2.2794232586492678 20.760491121966954 43.2016204350768 0 0 0
1921 1 6.767128590276792 23.017959709766465 37.507941993471924 0 0 0
2191 1 8.493040526371534 20.88393436397763 37.4523864932803 0 0 0
2727 1 6.772860258915459 23.973431813594008 41.13473011339298 0 0 0
2447 1 6.9508642137109105 25.83202393574531 39.16596022873904 0 -1 0
1375 1 6.125990700425172 20.78543923196747 38.897613499576885 1 0 0
2416 1 13.22332216070432 21.107008627981276 37.26434968523311 0 0 0
1097 1 11.268214002103935 25.339989811548126 39.534320831546474 0 -1 0
1904 1 8.762120634012069 23.103702485650516 39.40986802408451 0 0 0
2155 1 8.52898680858574 21.241826489446982 41.19721607760453 0 0 0
2631 1 10.470092190266739 23.346677449298 41.262308759259064 0 0 0
3039 1 8.78196548992106 25.797650106468968 41.046078966478234 1 0 0
2473 1 10.989133864899715 20.862500165446562 39.14799385302505 0 0 0
3182 1 12.906851858978452 25.43468994030184 41.51104982885822 0 0 0
829 1 12.846111785888215 23.366498365226636 39.25899451127137 0 -1 0
2226 1 12.86874253001731 21.34266448460952 41.368281762017034 0 0 0
2862 1 14.869030732379942 22.89433403988296 37.8757143433631 0 -1 0
2452 1 17.33620899168052 20.775070467566103 37.53054495179807 0 0 0
2199 1 14.753253896049658 20.764977650708182 39.358613832940776 0 0 0
2437 1 14.805524917822975 23.41587635483705 41.435708647112776 0 0 0
2221 1 16.828278663281637 22.70980412454686 39.780778048821766 0 0 0
2125 1 17.27000206757629 21.08147052300027 41.808036908934724 0 0 0
1866 1 16.915445556624455 25.447034738863852 41.010317279535165 0 0 0
2248 1 14.793873741762583 25.29266264039525 38.73335859588732 0 0 0
2072 1 19.408347873654158 25.699984730946767 39.5545948464081 0 -1 0
3221 1 19.10089664438145 21.051418825335002 39.557186003235245 0 0 0
2509 1 19.153575421282284 23.111139954298952 41.95537811386862 0 0 0
2490 1 19.74510327092223 20.83421134212071 43.10236470383227 0 0 0
2619 1 23.00631727638961 23.22547055657014 36.67443072509559 0 -1 0
1966 1 21.277455544989323 25.1711647742065 37.46607547179468 0 0 0
1228 1 25.039461570405823 21.32260287862881 36.759276377224396 -1 0 0
1644 1 21.148697871964508 21.00279232074501 36.826464170217164 0 0 0
1995 1 25.577896204207388 23.266427504299916 38.64657919125233 0 0 0
2507 1 21.160897383743947 23.156810507478536 39.44049931985942 0 0 0
2238 1 23.32736391918276 25.194703018973783 39.45343374652813 0 0 0
2771 1 21.59039540592867 21.108264217247154 40.90486387892098 0 0 0
2524 1 23.299142727570484 21.516020540653823 38.755475877710275 0 0 0
2460 1 21.14565678622651 25.075339407582995 41.786586175814314 0 0 0
2431 1 25.02221716562259 25.274189392342297 41.46420399488409 0 0 0
2487 1 22.911862533105694 23.26414590982653 42.097700926437575 0 0 0
1425 1 24.801488860094107 21.36385403525848 41.27932962870388 0 0 0
3249 1 20.99910468091306 23.050711293096143 43.946266253381594 0 0 0
2142 1 29.385401914066836 21.17852683789057 36.94610516401325 0 0 0
2492 1 27.377070032720013 23.029273437097842 37.00475549611923 0 0 0
2292 1 31.731052192882345 25.16588597195098 39.01284693600989 -1 0 0
1938 1 27.465651278565982 25.56201655850138 39.458994850003286 0 0 0
2017 1 31.4047712502832 21.39486808562448 39.14501611813713 -1 0 0
1765 1 27.346957156370287 21.11170897877681 38.9919578434392 -1 0 0
2277 1 29.199968232431488 23.107669360317136 39.1827526420051 -1 0 0
1975 1 31.73673199001901 23.123105619694286 41.318447228126736 0 0 0
2466 1 29.652751175383983 20.967223290468176 41.217544285932476 -1 0 0
2539 1 26.921551864322055 23.316198026446674 40.87891496039073 -1 0 0
2971 1 29.45292832969042 25.21606152801911 41.158924504139435 0 0 0
2788 1 31.843589690321732 20.83404946636809 43.18304035448547 -1 0 0
2696 1 31.746721018969158 25.475084507711962 43.13615135527717 -1 0 0
2406 1 2.590456372970418 27.311523835073285 37.57571465333846 0 0 0
2153 1 4.8200044977021035 27.962996621799963 39.33761057639343 0 0 0
2229 1 0.8294480623509118 27.43515746633647 39.71255538881407 0 0 0
2766 1 3.0733040671184346 27.427450202726646 41.30100080205048 0 0 0
2243 1 4.66324544292998 29.682804131198502 41.540894434272396 0 0 0
2246 1 2.389049274048059 30.066996109282428 39.456851708261425 0 0 0
1666 1 2.595160423280662 31.86671143995042 41.56302063509992 0 0 0
2815 1 0.5178833461990926 29.33299929552925 41.448943099303385 1 0 0
1646 1 4.7002586107929485 31.374877195158877 39.15962724855684 0 0 0
1159 1 0.3282379880330538 31.508077365072506 39.64872325678039 0 -1 0
2411 1 6.820075828578313 29.53668750018107 39.022906899022516 0 -1 0
2504 1 2.65446921918218 29.443053289420018 43.66717037564584 0 0 0
3008 1 0.027865665355083488 31.94005552534842 43.159637532491274 1 0 0
1867 1 6.911502947899405 31.640671642896102 37.02124194456267 0 -1 0
2782 1 6.595436601276055 27.31435130341593 41.696309624979676 1 0 0
1948 1 9.696473169570195 31.712309591924086 36.12317619099426 1 0 0
1553 1 8.961776840524617 29.07309907396586 36.99635366141387 0 -1 0
3266 1 6.634425422407513 31.710416336216724 41.08159658893292 0 0 0
2331 1 9.254443611192427 27.571576205732445 39.322735710474376 1 -1 0
2128 1 11.260091385758052 27.567150136104885 41.07554601269415 0 0 0
2294 1 8.548869828825852 31.58305873573336 38.89310938822742 1 0 0
3061 1 10.856977200674997 30.151753294898477 39.029312290967276 0 0 0
2804 1 10.651009384854751 31.84410582001737 40.96240615815414 0 0 0
2764 1 8.628231231078798 29.82289023094409 41.064438202741314 0 0 0
2242 1 12.813321912868986 27.325542587743815 39.06071314562804 0 0 0
2496 1 12.915039093301086 32.26769176371452 38.685495545249324 1 0 0
2098 1 12.572567388152414 29.65778058646909 41.192306695871416 0 -1 0
2554 1 6.496444513208238 29.84167904808347 43.27587504830047 1 0 0
3015 1 10.713714848016554 30.046132517830046 43.399648213851776 0 0 0
3277 1 9.000087523624908 27.938971458219438 43.01433867518414 0 0 0
1905 1 16.924481654451963 29.497208681956476 37.240877857211125 0 0 0
2517 1 18.93920655271826 27.810975983278013 36.88925752319089 0 0 0
3253 1 14.61868963221205 27.44448045355067 40.8961331378197 0 0 0
2656 1 16.951518428821956 27.322547251690782 39.32357415167147 0 0 0
2232 1 14.997106111992135 31.181158493496763 41.35262705890673 0 0 0
1538 1 14.497670281640744 29.419447596418735 39.19329654656905 0 -1 0
2831 1 16.980940782154907 29.468920657225453 40.739120129497806 0 -1 0
2559 1 16.598704421309954 31.969689595867656 38.710314443550516 0 0 0
1740 1 19.04413442905287 27.48457015064373 41.06935323585942 0 0 0
3314 1 19.166377976129045 31.683364211054222 41.36106217030437 0 0 0
2711 1 19.181804870071712 29.38948896589849 39.26375315448722 0 0 0
1537 1 19.124080344987682 31.263404843865736 37.523435954640654 -1 -1 0
1625 1 25.545705039647792 29.287818409224613 36.56206452877224 0 -1 0
2202 1 21.24045730770762 29.765033795009934 36.788183584871504 0 0 0
1007 1 23.73288886914255 27.540337622274937 37.322785602052136 0 0 0
1847 1 21.148558565766212 27.735998535907836 38.7187213150037 0 -1 0
416 1 21.400272836058974 32.18007112751512 39.19546704568735 0 0 0
1278 1 24.90931334268543 31.717472075653177 39.18182741079778 0 0 0
1782 1 23.065962643539507 27.157597282374468 41.20824423141752 0 0 0
2541 1 21.053808310320605 29.55994877913471 41.30839377631237 0 0 0
2930 1 22.878510255978046 29.73007947856214 39.21591450981874 0 0 0
3281 1 23.303635223810154 31.64173966786406 41.35601292150241 0 0 0
2300 1 25.247286556062136 29.556643674698126 41.09764352951919 0 0 0
2240 1 25.347153804882634 27.471838061219632 39.190814884325 0 0 0
2274 1 31.965941223960396 27.45373291466558 37.59131348255209 -1 0 0
2557 1 27.989514686563854 27.303302174717018 36.791509789477644 0 0 0
2255 1 29.177654976220314 27.50190633988394 39.19415882771293 0 0 0
1360 1 27.34615333764568 29.82857049373366 39.230135745450454 0 -1 0
2305 1 31.376027827866665 27.276203349918745 41.25045689385369 -1 -1 0
2262 1 27.37599024971433 27.515640298370567 41.310945257456325 0 0 0
2525 1 31.61610808203164 29.365896354596078 39.671762154346794 0 0 0
1732 1 29.785807596403327 31.383249344203023 39.716285775354635 -1 0 0
2493 1 31.44327927360811 31.546191868616386 41.82156226136814 0 0 0
1794 1 29.593692763332076 29.430430930353868 41.64674012530594 -1 -1 0
2071 1 27.42189282942234 31.714347998112586 41.57483888739308 0 -1 0
3048 1 29.33839258481807 31.876931580001816 43.50217438249106 -1 0 0
2119 1 4.50191079869588 2.5557996526282616 42.77884936004447 0 0 0
2760 1 2.4461846292720555 4.462370341046596 43.234713132328956 0 1 0
2779 1 0.24359997143555728 2.3475219423128433 43.32004604965313 1 1 0
3102 1 4.356689409470028 2.402214031771729 47.419660183156815 1 0 0
3306 1 2.332304854509765 2.456831180163824 45.590736455889115 0 1 0
2338 1 2.216012504127994 4.2549054678558225 47.535925012385505 0 0 0
2722 1 4.243671920479244 4.566534270529751 45.119408143123664 0 1 0
2847 1 0.2435651014574978 4.742754272996909 45.30735217918972 1 0 0
2564 1 0.4157418738880493 0.4133709365076211 45.28002892843173 0 0 0
2503 1 4.459366151956641 0.25347410736014897 45.579385934240484 0 1 0
2726 1 6.409755065668869 0.4461068881367415 47.37796732215818 0 1 0
3077 1 2.3132458366082633 -0.24821608151166444 47.27382413125797 0 0 0
3305 1 4.256950443172834 0.36380738973061805 49.46064304257282 0 1 0
2791 1 0.19282987164947768 2.4419900240923065 47.28637933806742 0 1 0
3049 1 3.998523262353803 6.694008613354057 47.436259304022855 0 1 0
3074 1 1.6455572128093856 2.052229263097494 49.63623678415747 0 0 0
2299 1 6.464863604709925 4.457279847334518 42.87312451383394 0 1 0
2621 1 6.641637430083778 0.4481842657303486 43.21535899124868 1 0 0
3301 1 6.22543769406762 2.2759525593793937 45.18490334914374 0 1 0
2858 1 6.116817513348425 4.678985907404041 47.176609361622965 0 0 0
3019 1 10.701703491359046 0.2620381972239315 43.23071647037905 0 1 0
2773 1 10.949147516045196 4.697945972513303 43.003831276630486 0 1 0
2622 1 8.886872027695288 2.569331367669823 43.28013876821559 1 0 0
2587 1 8.339322566002139 4.294905079719067 45.559611876162556 1 0 0
2595 1 10.765157367341528 4.484184687013106 47.747066105414476 0 0 0
2339 1 8.718870102868129 2.4391025563624296 47.41782022731241 0 0 0
2491 1 10.604413993469482 2.465061016820625 45.43346063000164 0 1 0
3153 1 8.628468656874999 0.16286626826789363 45.49354016526141 0 0 0
2832 1 10.646236122853152 0.010403435740298634 47.57448150228799 0 0 0
2275 1 13.114086768832047 0.45442988324995043 45.313799147846076 0 1 0
2601 1 12.805224103569765 2.214483501566169 47.429859163024126 0 0 0
2612 1 13.111828961321185 6.280729562559584 47.18308999822114 0 0 0
2386 1 12.779958093495049 2.0975039040854453 42.870862575551975 0 0 0
2801 1 10.69524320596498 6.029326432575655 45.17972822205179 0 1 0
2830 1 6.487616047756659 2.2268761638714785 49.072767028538905 0 0 0
2615 1 12.823549423393406 4.505611490460507 45.14742451721185 0 0 0
2031 1 14.89231416282588 0.16188890952002527 43.495402956897024 0 1 0
2768 1 19.039925334672063 0.6604502332245514 43.522873972445346 0 1 0
2647 1 14.889277439648183 4.420092217037102 43.079472951547984 0 0 0
2087 1 16.965951571297577 2.3369142923648005 42.934203324568955 0 0 0
2556 1 18.90828863397074 4.247965922559271 42.957931723740394 0 1 0
2834 1 16.685494500580045 4.221883144655544 45.05145383242115 0 0 0
2547 1 17.506242652542788 2.2662609165558303 47.14360138755579 0 1 0
2836 1 14.785621083697524 4.013416335903962 46.963534657118664 0 0 0
2571 1 14.854545219033545 2.4680408307762094 45.04497857777974 0 0 0
2542 1 17.093432959765646 0.13075269528618663 45.05630494131146 0 1 0
3086 1 19.144944837852133 4.739187333124554 47.395888731537596 0 0 0
2803 1 19.037557329174412 2.7979126038047655 45.05931942962797 0 1 0
2508 1 15.04769005264352 0.6971146126222811 47.32028250689418 0 1 0
3089 1 18.919494466080785 0.03259830452712235 47.43171320508083 0 0 0
2934 1 14.834775427449356 6.373696592730535 45.3081992490626 0 0 0
2835 1 16.84110244111618 4.080494073892906 49.44159353359229 0 0 0
3034 1 21.319750808050685 2.063036436998912 43.26277804976618 0 1 0
2080 1 25.192686212642105 2.154825500698126 43.06092423941919 0 0 0
3157 1 23.43978897736902 4.330932542861276 43.12732735512456 0 0 0
2365 1 25.595903103637298 4.397925582936063 45.35263255970586 0 0 0
3118 1 21.29186307560326 4.6240914404419025 45.37750207936974 0 0 0
2102 1 23.425484671591022 4.435937888432903 47.13620291231828 0 0 0
3125 1 21.309485310312937 2.5703718656640486 47.219901009294844 0 0 0
2844 1 23.12963539214665 2.5147102086040265 45.10544484181831 0 0 0
2852 1 25.46852615171181 2.6490037180820343 47.61760031792456 -1 0 0
2583 1 25.59311202595949 0.4473215020516633 45.92411197754999 0 0 0
2896 1 21.097377042210905 0.044766184964823916 45.805856887943186 0 0 0
2839 1 23.362926953644134 0.4430286187585357 47.62096201121354 0 0 0
2908 1 23.2419269314189 6.41270909607842 45.35626003436726 0 0 0
2808 1 21.03429560486207 0.29224966119480217 49.37091550255393 0 1 0
3071 1 31.446396777160473 4.820937280316654 43.2639710570976 0 1 0
2334 1 27.501476737492844 4.449276164386127 43.40777146106021 0 0 0
2657 1 29.37525705281597 2.333347381145221 43.18346296126665 -1 0 0
2874 1 27.45860416745561 2.4360996580557273 45.72585066655204 0 0 0
2620 1 29.53916379988497 4.504403776618395 45.26265834811978 0 0 0
2842 1 27.63504885914922 4.88481055713605 47.480904484072916 0 0 0
2563 1 31.440383670476216 2.531006849642315 45.26193616106346 -1 0 0
2884 1 31.23320027802204 4.518301553129943 47.401820462450395 -1 0 0
2846 1 29.701948963773237 2.52418904932715 47.593132566674996 0 0 0
2867 1 31.64031020728251 0.437637113181785 47.3694747177015 0 0 0
3001 1 27.676028596927388 0.3864055360197732 47.86735904717721 0 1 0
2076 1 31.485779464124555 0.5274961033970411 43.10452071632353 0 0 0
2513 1 29.4078941225279 0.5629687984490703 45.5633456732207 0 1 0
2825 1 29.73218209968986 6.803223021435958 43.315625688386206 -1 0 0
2353 1 27.387352106307834 0.5373106348923701 43.579553864632125 0 0 0
2869 1 29.703165587533114 5.394350356831875 49.51470098591909 0 0 0
2820 1 4.339180056741334 6.744063666951404 42.876700061385264 0 0 0
1706 1 0.20775307176902177 6.354905659515965 43.28150009739727 0 1 0
3046 1 2.2709141706430933 6.417210386361865 45.20106838246584 0 1 0
2593 1 0.42301899502116175 11.039542966493421 43.43586026480381 0 0 0
3137 1 0.4974348914453703 6.456405416994733 47.22816970021456 0 0 0
2120 1 4.245103503523673 10.732492090220967 43.02560700533233 0 0 0
3133 1 2.2167446156620048 8.450536417425873 42.98510485067768 1 0 0
3110 1 4.402385175974092 8.663556198496071 45.285484257907676 0 0 0
3078 1 2.488412956613031 8.57261828805578 47.02634608007022 0 0 0
2683 1 4.603370960975185 10.728255549831157 47.67032920052697 1 0 0
2817 1 2.464896307269903 11.059045067304178 45.59996987932492 0 0 0
2369 1 0.11444767874614938 10.779794989589899 47.32824128368564 0 0 0
2394 1 0.13209932050910148 8.811149241581955 45.344848305737294 1 0 0
2792 1 4.340871828956365 12.745469150338586 45.20115603280841 0 1 0
2912 1 2.3145638015981533 10.622599651305077 49.59527559349675 1 0 0
3141 1 0.5374102336975902 8.791494106283405 49.53496035519644 0 0 0
2857 1 8.472974743101105 6.145241820475825 43.429327104658334 0 0 0
2856 1 6.351331228332751 8.435242407913362 47.27005063826253 0 0 0
2670 1 6.297313834123911 12.757228741027642 43.41028435054417 0 0 0
2890 1 6.746362216393598 8.567128268725819 43.302878379164376 0 0 0
2793 1 6.255514663211857 6.397749475368751 45.292980927677 0 1 0
2730 1 6.049923059824715 10.648944891169002 45.3801966850814 0 0 0
2107 1 10.544219880071479 8.418550531052679 43.286124930766384 1 0 0
2315 1 12.71963537729868 10.409711180509081 42.794428093987456 0 0 0
3060 1 12.720119598716012 6.681659505648847 43.533460762519205 0 1 0
2855 1 10.823038148091165 12.538798283839213 43.6757187384233 0 0 0
2599 1 8.61642296988781 6.23189735643024 47.250385157167045 0 0 0
2669 1 6.704875720944065 12.657272549327027 47.715380214944744 0 0 0
2384 1 8.616756090573894 8.422525154754378 45.401067929095824 0 0 0
3113 1 10.508454063638336 10.732283494369794 46.01143439882055 0 0 0
2351 1 11.026975857440634 8.377018819253536 47.42197755459853 0 0 0
2387 1 8.336261921371007 10.637010812560558 47.621936689350804 0 0 0
3081 1 13.042203420026732 8.745883551447095 45.03490802566427 0 0 0
3150 1 13.143411933754662 10.396233823893558 47.96539975352033 0 0 0
2321 1 16.975256340177427 6.513515393013049 42.95073960713844 0 0 0
2576 1 17.205559920209446 6.48954214584942 46.88444323875164 0 0 0
2613 1 18.857988313949573 6.461305701805349 44.71453276478251 0 0 0
2865 1 19.100831101732105 8.602715398553656 43.206635178591846 0 0 0
2089 1 14.750754857574115 8.353575092221842 42.95406356828287 0 0 0
2639 1 17.00436158777006 10.677032699023643 43.38697563703941 0 0 0
2393 1 19.280540224821834 12.559820090674547 43.10281262687193 0 0 0
2637 1 14.890950119796411 10.685217605273255 44.790190343107156 0 0 0
2828 1 15.251030732004109 8.441268694895639 47.397011827022006 0 0 0
2614 1 16.701449205026655 8.409913433254596 44.86355650748121 0 0 0
2636 1 17.149196548468147 10.474937871836284 46.66564709433951 0 0 0
2932 1 18.875300020223946 8.588905077726382 46.762215839708475 0 0 0
2901 1 19.33646615832343 10.64004174453014 45.14649153973676 0 0 0
2675 1 14.737916159066774 12.536473194724145 47.33626108223521 0 0 0
2677 1 18.77648088893107 12.71468163011534 46.8489400999913 0 0 0
2929 1 15.043235540985705 10.663984288890148 49.63796567984451 0 0 0
2719 1 22.830031484859944 7.915204137850987 43.061838909820736 0 0 0
2395 1 21.462643871831418 10.50041016287485 43.00468469494716 0 0 0
2876 1 25.176848655709037 6.63598754291182 47.39061252201057 0 0 0
2939 1 21.01118455795216 6.895092007954256 47.15150667443391 0 0 0
2590 1 20.972022938990502 6.241173309625703 42.806535087808385 0 0 0
2322 1 25.405547254856007 6.257359930325684 42.815025558805694 0 0 0
3070 1 25.34985898203096 10.582751059729636 43.00435601626152 0 1 0
2907 1 23.34168236351763 12.591918610838997 42.787333452230456 0 0 0
2398 1 21.268264473775687 8.860822318556028 45.165265157170126 0 0 0
2811 1 23.571386673499582 10.575418257885415 44.8383533710418 0 1 0
3122 1 23.184776441939036 8.891401859453602 47.32520787849673 0 0 0
2655 1 20.7189045082011 10.62783073691275 47.553456702902196 0 0 0
2976 1 25.263207582848082 10.80313377208446 47.52824335802579 0 0 0
3098 1 25.31519414736827 8.335606595193068 44.97007709477766 0 0 0
2653 1 21.32713577903622 12.381286648981716 44.9531835021006 0 0 0
2391 1 22.856459574812444 12.538882777762652 47.206409252951595 0 0 0
2132 1 27.237967892247173 8.416695040715902 42.99081370540091 0 0 0
2780 1 31.647236263883855 6.801926037638041 45.998772593162315 0 1 0
3161 1 29.224863466625873 6.694224398562094 47.468949850994974 0 0 0
2687 1 27.323087956817343 6.674653276992028 45.1082827923659 0 0 0
2941 1 29.476985784803666 10.739199711390691 43.17701559133348 0 0 0
3198 1 31.748766563034103 12.711024063319465 43.30335941236258 0 0 0
2952 1 31.623060371578244 8.68346496148605 43.17980430341901 -1 0 0
2399 1 27.47765086073887 12.683632407348764 43.3934550877667 0 0 0
2938 1 26.836338397470797 10.434212654232713 45.37858328007023 0 0 0
2624 1 27.3340937160282 8.696174801179806 47.562363725933324 0 0 0
2333 1 31.586608538157975 10.934244792064904 45.28583997591696 0 0 0
2845 1 29.538668737979172 8.80028663534503 45.18084109942772 0 0 0
2552 1 31.80454807428602 8.850166251717678 47.573379805586455 0 1 0
3043 1 29.70210466625203 10.746774282718096 47.109296776956995 -1 1 0
1912 1 27.473463955957946 12.518221213882407 46.925835535733185 0 0 0
3166 1 29.432134237616307 12.72224474511919 45.10720872008003 0 0 0
2148 1 31.647480156538617 12.99579338456597 47.21724183417326 -1 0 0
2688 1 31.76122191785621 10.465573330305551 50.17548970971225 0 0 0
2344 1 32.01257809461533 6.750298003490518 49.424139758756645 -1 0 0
3041 1 0.05852346632680779 18.923128633548288 43.39712274961842 0 0 0
2878 1 2.1855419069436457 12.710476175164539 47.96806505491155 1 0 0
3194 1 4.742050265760911 19.358977967121014 43.29413466984481 1 0 0
2721 1 0.29329114428447123 12.940698941574713 45.402569946708105 0 0 0
2718 1 2.138673094153025 14.88238683942801 45.70457336518765 1 0 0
3173 1 4.406016484942902 14.44638236165672 47.40389853198527 0 0 0
2179 1 4.161915424916054 16.632348823206268 45.40401421427847 0 0 0
3206 1 2.5471297340567 16.944669741099492 47.54569508444503 0 0 0
3177 1 2.593431766633269 19.076241822137412 45.17065355292931 0 0 0
2728 1 0.03385369442470971 16.876814249206596 45.47167924556865 0 0 0
2366 1 0.29137497667329154 14.867983229753253 47.67172615851191 1 0 0
2977 1 0.22717346540557232 19.289108137626 47.23819859484361 0 0 0
2476 1 4.438708282145236 19.128059935219383 47.355888483906895 0 0 0
3210 1 6.210310815189401 16.996074966888347 47.5670223188505 0 0 0
2978 1 4.543547074325274 16.465223866986417 49.58509329591378 0 0 0
2455 1 12.917836741624875 19.276446897915168 43.05357582776597 0 0 0
2627 1 8.560876699660666 12.577413183403928 45.24422101174381 0 0 0
2918 1 12.71121792481151 12.182650317805262 45.48069596639377 0 0 0
3169 1 8.287239501507287 19.065424260008754 43.172849412359675 0 0 0
2479 1 10.421450624531968 12.816635572749647 47.69730689994435 0 0 0
3201 1 6.304502776528323 15.217907056207453 45.34858694441405 0 0 0
2407 1 8.482533827245643 14.777229499889819 43.3958765142944 0 0 0
3214 1 10.754575179548123 17.483306900037256 43.48170582129186 0 0 0
2664 1 6.220322033031407 19.01160846362633 45.324262423306656 0 0 0
2920 1 8.496796735340336 16.670037357655836 45.188720454816774 0 0 0
2954 1 10.751192557903433 14.681465471806696 44.85201970835408 0 0 0
2924 1 8.71923584794033 14.55537960971942 47.018695020547014 0 0 0
3209 1 10.778013242679998 16.722411586072933 47.2734164268766 0 0 0
2769 1 10.481131798495548 18.836208689631185 45.38900523118309 0 0 0
2531 1 8.485280751693699 18.962924925698047 47.35209414313269 0 0 0
3178 1 12.82426583323639 14.642491033884074 47.167228896398385 0 0 0
3241 1 12.744440224817003 16.5833728061029 44.97339819532538 0 0 0
1959 1 12.66888124187453 15.011012219712507 42.94114632972007 0 0 0
2312 1 12.67429641167631 18.509647476682044 46.94022466103095 0 0 0
2894 1 14.481051739995447 12.718958145319736 43.07751009020085 0 0 0
2937 1 16.529001568843064 13.066145702829019 44.8664113796794 0 0 0
2959 1 17.13456824759336 18.918889155920702 42.908064056660386 0 0 0
2348 1 19.133351556318335 16.741056615608223 42.85596127646206 0 0 0
2367 1 16.743194482271704 14.584599493697201 42.60176699871876 0 0 0
2674 1 15.21367748253677 16.89162491613594 43.35494577238479 0 0 0
2949 1 14.423749675195776 14.861048088438126 45.114800943061255 0 0 0
2955 1 17.032426006870562 16.545155167272043 45.13113938530801 0 0 0
2134 1 14.760975165862401 16.710117235666942 47.18379044341162 0 0 0
3170 1 16.743775732312326 14.466877814168672 47.342649623744315 0 0 0
2962 1 17.272385972418245 18.80918393586794 47.134817548299935 0 0 0
2963 1 14.89548186074817 19.11527473316612 45.32504665834722 0 0 0
2996 1 19.19385130217202 14.999204123696911 45.18396994702823 0 0 0
2713 1 18.96909400181468 16.91544337326178 47.53537842898499 0 0 0
2519 1 18.937967182006414 14.748118539435689 49.073363760523016 0 0 0
2412 1 25.20443021896648 19.258235188151822 42.864999577597224 -1 0 0
1970 1 25.13943004309691 12.81823770442186 44.95777847505712 0 0 0
3021 1 23.255654937430403 16.02210336701643 42.617742677312954 0 0 0
3066 1 21.244865262667457 18.56939567778124 42.75591005205827 0 1 0
2644 1 20.96080087999048 14.433747410260493 42.69159282327711 0 0 0
2965 1 25.444850076590814 14.624078503908812 42.67481065744156 0 0 0
2678 1 23.281772245941745 14.754441434490358 44.62284487149712 0 0 0
2652 1 25.27303436399372 16.9457487586769 44.79359591810382 0 0 0
2813 1 21.0864222030281 16.917682236398548 44.79046871839127 0 0 0
3213 1 21.550024179155574 14.80449413101634 46.75476539721237 0 0 0
2733 1 23.658645686085453 16.8087277940197 47.31970922382342 0 0 0
2716 1 21.167299196526187 18.56334792047182 47.34149905881589 0 0 0
2746 1 25.201601964822828 19.033772908391327 47.22906916741405 0 0 0
2389 1 22.87482868710206 19.17289455724202 45.246527804489034 0 0 0
3186 1 25.22408930890329 14.219814479903855 47.223617993799834 0 0 0
2648 1 23.157967920555745 14.544918276122917 49.2587301748493 0 0 0
2679 1 25.837538220808373 12.898531960834537 49.37938475693623 0 0 0
2972 1 21.473908024768573 16.582837816650276 49.19108779967121 0 0 0
2909 1 29.417757132859904 14.69972033680319 43.25056754648453 0 0 0
2964 1 29.27690922844055 19.19118244776916 43.07517922611092 0 0 0
2784 1 27.620405147002398 16.945027190463914 43.047779524021216 0 0 0
2897 1 27.26353690739636 19.313422789339306 44.899211073354834 0 0 0
2465 1 27.11601583229931 15.035274399469401 45.06714869485117 -1 0 0
3197 1 31.472903505650763 14.95433395427462 45.16185399292443 0 0 0
3257 1 26.89271326789217 16.93636065937533 47.03262470575318 0 0 0
2263 1 29.264279014552248 14.83117594401943 46.88144259581218 0 0 0
2710 1 31.501938158715546 16.829722518131998 47.43966527493892 0 0 0
2943 1 29.262593720198502 18.538998416430523 47.273270909705175 0 0 0
2750 1 29.49646782395464 16.770910892514063 45.36146131582384 0 0 0
2724 1 31.48278689631029 18.825221443311783 45.121332446272504 -1 0 0
3030 1 0.6433969751341323 23.106161632333674 42.77718664049239 1 0 0
2162 1 4.272811267018627 23.013026054424298 43.439635101104074 0 0 0
2475 1 2.0246385170873706 22.985862701119444 45.45361449509186 0 0 0
3297 1 4.190510118141074 25.276043622771372 45.667264475155676 0 0 0
2973 1 2.3602691152158553 20.947508619120256 47.396182541168926 1 0 0
3040 1 1.8296644210909128 24.98489762526655 47.28771199354347 1 0 0
3218 1 4.181103866755241 22.87230086630104 47.53132517608988 0 0 0
2695 1 0.01193085153051045 22.90793024067121 47.65703101381707 0 0 0
2633 1 4.2268479411295266 21.001265378451567 45.445933385261654 0 0 0
2979 1 0.23208676382486884 21.03936830077545 45.49969035793691 0 0 0
2950 1 0.09368015584997372 25.23898082969031 45.062994087064006 0 0 0
2725 1 5.784278008294776 25.314771488911536 47.77419261215575 0 0 0
2849 1 6.488074209266235 20.973934532612727 47.15247447703637 0 0 0
3202 1 4.2572571964231845 20.606710396139526 49.5357700810163 0 0 0
2151 1 6.25261695592527 25.331878162491734 43.35762743245003 0 0 0
2699 1 10.7013461828024 20.772351091409025 42.80016591073766 0 0 0
2565 1 8.290610688844508 23.499319385622346 43.091145267218614 0 -1 0
2821 1 12.698936060947283 23.292897124488775 43.286972482222254 0 -1 0
3018 1 6.363989314162796 21.40830343472774 43.438207776721086 0 0 0
2790 1 6.314135145551863 23.210467399040816 45.905248340236014 0 0 0
1961 1 10.892860128411032 25.501066707697856 43.140244824628454 0 0 0
2216 1 8.62800642766461 21.24382864444872 45.02659154158975 0 0 0
2732 1 10.881655947925452 21.14288726275907 47.271143777656185 0 0 0
2663 1 10.428907789076467 23.16271139826111 45.040548678859125 0 0 0
3265 1 8.252699298782886 25.28982458976024 44.92439286778956 0 0 0
3309 1 8.639845733616172 23.33278543133118 47.45072120988735 0 0 0
3013 1 10.499747093389043 25.35549776731701 47.112518769977314 0 0 0
2570 1 13.06148579648293 23.583364851478407 47.61960967392531 0 -1 0
3146 1 12.70423866417968 21.283396986150517 45.30216211111715 0 0 0
2672 1 12.502091429021535 25.38670182800533 45.3337391326616 0 0 0
2536 1 15.17559574159884 25.33481327404397 43.61111615651478 0 0 0
3278 1 18.989437673728858 18.753807000811463 44.8834960927565 0 1 0
2743 1 17.144622379925256 23.5973654005149 43.64148893456898 0 0 0
2374 1 15.024235215670378 21.18456611246733 43.28377425955048 0 0 0
2729 1 19.03512221337889 25.600354615437304 43.06258084789269 0 0 0
2736 1 14.449213585871044 23.210146689789173 45.20029954952448 0 0 0
3064 1 17.169141872913933 21.004763277531115 44.96739464049632 0 0 0
2910 1 15.261726619849641 21.27474845768091 47.114939793545474 0 0 0
2451 1 16.741235507026538 23.636391974665823 47.45968444907466 0 0 0
2762 1 17.090397647792372 25.36871203391 45.29698185375363 0 0 0
2983 1 14.701615672471831 25.489245241457283 47.23650207881041 0 0 0
2984 1 18.88224529834158 25.73615527984849 47.26265228362681 0 0 0
2453 1 18.84083305091414 21.017977778613798 47.46483307906797 0 0 0
2708 1 18.93607216402063 23.160992531814735 46.00805876386509 0 0 0
2478 1 23.36144425974864 25.597001350677687 43.671713547603964 0 0 0
2774 1 25.257403989781313 23.41415295649568 43.34716394513892 0 0 0
3055 1 22.61377768881832 21.081772298260738 43.39531974219048 0 0 0
2776 1 20.7556468213812 20.8095100374388 45.633352447618066 0 0 0
3165 1 23.049896433571313 20.963183031325954 47.423543975718815 0 0 0
3230 1 21.01478111623563 25.575646933982128 45.289066195659245 0 0 0
2906 1 21.05640569621153 23.271629254781626 47.628600011121435 0 0 0
2390 1 25.232020554857662 25.36593990495638 45.58371893925952 0 0 0
2994 1 25.188688328923202 22.81340709127056 47.60873397582276 0 0 0
2709 1 23.03359607323887 23.58476072019476 45.598301652309985 0 0 0
3285 1 23.177663379161288 25.58924472658122 47.52514676544681 0 0 0
2489 1 25.1940768434607 21.13871900798134 45.20197249152024 0 0 0
3003 1 23.2429754983265 22.893401670735447 49.50035997456489 0 0 0
3289 1 21.022900053660894 20.87142955174148 49.229847997656734 0 0 0
3233 1 26.924754128482462 21.43700094707681 42.9745697924765 -1 0 0
2560 1 29.181544815341258 23.027322498433406 43.05360578807785 0 0 0
1176 1 27.43836114546165 25.621970524494415 43.30859007096807 0 0 0
3254 1 27.010157848526298 23.432456990722585 45.066263363340624 0 0 0
2457 1 29.212076713004024 21.206030463177612 45.03492191276923 0 0 0
3258 1 27.2839693613425 25.194548840765094 47.49778276966515 0 0 0
2253 1 27.26180786021726 21.058108171090318 47.28252335525632 0 0 0
2778 1 31.1330701854236 20.97779679405529 47.09677856751768 0 0 0
2236 1 29.167439099760877 23.135279624404923 47.22735898026988 0 0 0
3234 1 31.63949247117073 22.83681250508838 45.01019599919732 -1 0 0
2518 1 29.350175032129954 24.890130138834948 45.30805674240438 0 0 0
2749 1 31.188641602089767 25.020953741627235 47.504350356230574 0 0 0
2877 1 30.957695228125043 22.80622989571012 49.198230706327884 0 0 0
3014 1 4.632452481606397 27.42602708655473 43.47004911006 0 0 0
2340 1 4.574149084370296 31.825368981456915 43.53419172558407 0 -1 0
2247 1 0.1817697260789932 27.63379941064604 43.404866687949244 0 0 0
3002 1 0.10868752483512792 27.098660242019225 47.11340004497528 1 0 0
2686 1 2.2392913768761846 27.184245233107855 45.61928797262475 1 0 0
3010 1 4.455984139037765 27.579680899843755 47.426124367568306 0 0 0
2270 1 4.6903146450983515 29.581355080032456 45.58314309589195 1 0 0
3038 1 2.3298789692063986 31.59100294808751 45.33753231092278 1 0 0
3302 1 4.40397939525568 31.441054190165488 47.516592254817304 0 0 0
3044 1 2.0513620269020696 29.697164295112607 47.080970380904176 0 0 0
3035 1 0.2454013784558724 29.98396855988167 45.08746489872863 1 0 0
3073 1 -0.12647163836800546 31.702088824408897 47.19750028976007 0 -1 0
2758 1 6.377399478840119 27.41487334004608 45.62172000710551 0 0 0
2980 1 6.826963438950512 29.39848366128679 47.49375411822511 0 0 0
2982 1 6.480475038627226 32.149167378388974 45.58705888471561 0 0 0
3016 1 2.1685264944855107 27.066186856685693 48.75178102455325 0 0 0
2986 1 6.793066333113426 27.397884378936947 49.27590660299214 0 0 0
1708 1 8.68739615625749 31.788451235223405 43.3789094246734 0 0 0
2319 1 12.920318192398344 31.702879865340517 43.37552827970586 0 -1 0
2794 1 13.10172702747441 27.359963213316806 43.480280562138375 0 0 0
3024 1 9.341337908128356 27.69338143749655 47.091075026781155 0 0 0
2041 1 10.63655678870381 27.538272216078212 45.03319688030087 0 0 0
2946 1 8.525724841174107 29.48836695993739 45.228536893625375 0 0 0
2744 1 8.845005031694608 31.257980828373768 47.40658475301356 0 0 0
2827 1 11.245518780103321 29.78060367692492 47.103461816745856 0 -1 0
2738 1 10.745032261105012 31.98887713265874 45.42168696314083 0 0 0
2511 1 12.686140317845824 31.938693121516142 47.80762013204749 0 0 0
2032 1 12.734815341691446 29.38535804773799 44.93014066336001 0 0 0
2775 1 12.469304167218018 27.505616983088665 47.400565862720256 0 0 0
3274 1 12.721423642721984 29.694428805324645 49.55366660352491 0 0 0
2285 1 17.030781634063363 27.620569877754 43.131246906240285 0 0 0
3022 1 17.101508196306433 31.492848321247337 43.11851177937071 0 0 0
2588 1 19.068486516874604 29.53093681865963 43.506836931981475 0 -1 0
2081 1 15.011171905846782 29.462906398135587 43.34260517521536 0 -1 0
2502 1 14.837399106551624 27.706631111080785 45.64106677333201 0 0 0
3238 1 16.72469596425904 27.228876865857828 47.87164038003671 0 0 0
2797 1 14.598671862682616 29.760689553640542 47.5331330710273 0 0 0
2252 1 14.712046683516197 31.672769437986293 45.523253491912065 0 0 0
2251 1 16.740655204677466 29.66547737602432 45.41862700333656 0 0 0
3217 1 16.82736933718794 31.749927999905555 47.35398273741546 0 0 0
3023 1 18.943867032784635 27.761174730238878 45.253139745733165 0 0 0
2566 1 19.019171217394792 29.303499829540453 47.311603781307284 0 -1 0
2345 1 18.879103858193428 31.53586982689618 45.37854491851825 0 -1 0
2783 1 25.189825035154897 27.38426804466001 43.17094843187211 0 0 0
2789 1 20.852462697022673 31.86124999899237 43.46043789674132 0 0 0
2940 1 23.170197602228114 29.33789044998331 43.31673995793404 0 -1 0
2742 1 25.424114970596243 31.637597293831263 43.71029107860138 0 0 0
3033 1 21.165818829957043 27.485188986231734 43.39919913779992 0 0 0
2740 1 25.246043555277723 27.414030717747284 47.527671795426585 0 0 0
2515 1 23.06709176825906 27.555460553102336 45.67894131077965 0 0 0
3321 1 21.02621104414806 27.48720430162032 47.317068987444024 0 0 0
3101 1 23.662338827301152 31.68568452013483 45.778478493813296 0 -1 0
2459 1 25.2395160566444 29.109625285574545 45.46015794733526 0 0 0
2712 1 21.23207111603902 29.750209839399265 45.334001598940056 0 0 0
2999 1 21.28898969431087 31.66914897143709 47.43380467860286 0 0 0
3004 1 23.225267312930075 29.222093257581857 47.566058683377555 0 0 0
2870 1 25.33095106985834 31.59219708415242 47.75284021703944 0 -1 0
3062 1 23.2147694055086 31.663550819362115 49.67397771083645 0 0 0
2879 1 27.620209360023885 29.57717866981132 43.93340368850738 0 -1 0
2755 1 29.533413205857883 27.129594074801826 43.20035958509134 -1 0 0
3093 1 31.372533354360947 29.531514973435627 43.91694879618473 0 -1 0
3029 1 31.149060677349024 26.906408802951653 45.61233025211467 0 0 0
3261 1 27.515246426777814 27.206847008984106 45.45912013631644 0 0 0
2809 1 29.239633559081245 27.355076641786457 47.763024330019554 0 0 0
3042 1 31.551110993947784 31.811234027871436 45.22853812876987 -1 0 0
2555 1 29.227925885816834 29.32322159573107 45.56701189168423 0 0 0
2936 1 27.424657730232397 29.690455794223492 47.79267710966773 0 0 0
2841 1 29.91925313889986 31.610410304602794 47.654665757387015 0 -1 0
2514 1 27.46989061913762 31.69772256453084 45.55397107894368 0 0 0
3031 1 31.460392817965054 29.344238014264686 47.117480476447064 0 0 0
3129 1 0.012999762256907693 4.520003298259864 49.269543466512104 1 0 0
3109 1 4.301069609320011 4.228196190150806 49.26001285692777 0 0 0
2756 1 0.054973708551705816 0.3186630126694182 49.46918600368279 0 1 0
3080 1 4.2703214674273475 2.6283397699886875 51.322292046703254 0 0 0
3107 1 2.217533914997064 4.201573741723762 51.49263019734222 0 0 0
3330 1 1.9171878792131514 2.085824437785756 53.49192754776213 0 0 0
3365 1 4.257643908995111 4.511868487051546 53.27852691810397 0 0 0
3076 1 -0.26701741050878525 2.5211080166692854 51.53975232544919 0 0 0
3361 1 0.0066592608158010935 4.263516476631339 53.510051535145514 0 0 0
3075 1 2.880025340850651 0.20990146138237833 51.960906266856334 0 0 0
3333 1 4.595975042794316 0.35259584559004464 53.88628440134316 0 0 0
3329 1 -0.2624893572190962 0.3063685573479452 53.836837702606495 0 0 0
3134 1 2.3179404405064488 6.633902467152879 49.27656979134226 1 0 0
3112 1 4.208922766443851 6.289430704048605 51.451405386054795 0 0 0
3334 1 6.466871465094241 2.593212284476591 53.19845422013193 0 0 0
3336 1 4.613547759068592 2.2994242774399885 55.15363294332351 0 0 0
2796 1 10.673408527458482 2.352115001017718 49.40675715257506 0 1 0
3020 1 8.411482755604952 4.526948893931588 49.642288599089696 0 1 0
3079 1 6.198728131578196 0.49464415412552293 51.30022903108031 0 0 0
2826 1 8.34904194330886 -0.14427687454579627 49.34425009039396 0 0 0
3111 1 6.579081353467159 4.596183800828776 51.38125206352311 0 0 0
3084 1 8.520840250880473 2.3350065805024274 51.19968048715583 0 0 0
3115 1 11.080934304053201 4.334527413244126 51.2965323064017 0 0 0
3338 1 10.596232602997457 2.184763858423424 53.62608248674123 0 0 0
3369 1 8.926940945446596 3.761501043135186 53.491607108292776 0 0 0
3337 1 8.069637022810932 0.04169930643539977 53.4873004685617 0 0 0
3088 1 12.929363122069173 2.4102068408002206 51.563836442971244 0 0 0
2731 1 12.685559858859879 0.46939784604398554 49.7868591545462 0 1 0
3083 1 10.171852583115355 0.29249870962879193 51.658736722598306 0 0 0
3341 1 12.774188639665622 0.38748200373641567 53.35168476791703 0 0 0
2895 1 10.437674083132064 6.45204549896803 49.60675990969845 0 0 0
2580 1 14.932502040759184 1.7351671670171622 49.804658053265946 0 0 0
3082 1 13.005157359882178 4.180430814954229 49.29860788717065 0 0 0
3373 1 12.909785295298587 4.240178227995609 53.572596218500045 0 0 0
3318 1 17.20038084663665 0.6336774222249393 49.496277573590135 0 1 0
3097 1 19.3930130585852 2.302230965161397 49.32958703996753 0 0 0
3092 1 17.111239280569478 2.3468476996685523 51.51362531829987 0 0 0
3119 1 15.047400931149564 4.209711501458376 51.683924786736135 0 0 0
3342 1 15.42146639779532 2.353859848805473 53.99323542124424 0 0 0
3377 1 17.41047044518978 4.113093136500941 53.51509187625562 0 0 0
3346 1 19.41117717146089 2.157092407011673 53.45607564265687 0 0 0
3123 1 19.05642722295621 4.537365979257734 51.38858674546322 0 0 0
3345 1 17.22075830603865 0.2780971928592983 53.63722329863689 0 0 0
3087 1 14.956681445060573 0.45779031470355225 51.820095687127015 0 0 0
3091 1 18.862859793602336 0.385892510496459 51.51503651143283 0 0 0
3348 1 17.52585405344154 2.4840490331053817 55.659281656694965 0 0 0
3343 1 14.885815603367975 0.18934851793287147 55.38175035070043 0 0 0
3347 1 19.335175923229407 0.240756776736323 56.09201542882978 0 0 0
3158 1 25.238469053717157 4.435623283868763 49.68400183252166 0 0 0
2840 1 25.35141954600221 0.13684799528432962 49.59766246922427 0 0 0
3094 1 23.112555043585164 2.6136209680971896 49.40505592408216 0 0 0
2868 1 20.702658642818054 4.694251731780445 49.4643394931651 0 0 0
3096 1 21.138292060516054 2.5737072794131137 51.386186512630154 0 0 0
3100 1 25.186893191842657 2.126462493720634 51.47373875651482 0 0 0
3127 1 23.592835774153333 4.995691864672079 51.620809272946204 0 0 0
3350 1 23.166525833644574 2.702980959292021 53.287995588739484 0 0 0
3381 1 21.119275316648785 4.415632847444314 53.57171233210039 0 0 0
3385 1 25.529425964042424 4.299883149347367 53.5985439930038 0 0 0
3349 1 21.364081732606635 0.3023200040165017 53.27826774181901 0 0 0
3353 1 24.91256370905586 0.3338726759290865 53.647774600579744 0 0 0
3095 1 22.88922862456406 0.309665631327821 51.37323334762235 0 0 0
3382 1 23.380084604403084 6.838709175290246 53.689216542420375 0 0 0
2873 1 27.374628280646817 2.5574188128380735 49.443893487996654 0 0 0
2848 1 29.698054886353077 0.3692270721949261 49.77790068356038 0 0 0
3106 1 31.28856136794304 2.5493861615064315 49.4893387116905 -1 0 0
3131 1 27.66442010344419 4.095879629530871 51.920356711505306 0 0 0
3104 1 29.323155303510834 2.184075045077871 51.608518599061135 0 0 0
3135 1 31.052219077868823 4.180064367986977 51.77075413017646 0 0 0
3354 1 27.231394298272328 1.9112101988657872 53.85693098961977 0 0 0
3358 1 31.39452970887267 2.2208655565360633 53.724155855881456 0 0 0
3389 1 29.68211102678047 4.55124004386688 53.983762770393255 0 0 0
3103 1 31.704638167763026 -0.10415016555205954 51.6583136028161 0 0 0
3357 1 29.22626806710809 0.10965581192367747 53.790550013104095 0 0 0
3099 1 27.448800955297465 0.16972533908914175 51.38923239280511 0 0 0
3386 1 27.24029646659024 6.4108807280382125 54.22261509693258 0 0 0
3360 1 29.371040296694616 2.2539970209331246 55.897963629426805 0 0 0
2916 1 4.3888432116006415 8.428857747382144 49.53071313904435 0 0 0
3362 1 2.249917290143792 6.474878206806876 53.58593933897324 0 0 0
3108 1 -0.12132827990150978 6.392917964556366 51.83676096097349 0 0 0
3174 1 4.494658879632896 12.504073117069868 49.67860130312845 0 0 0
3139 1 2.3331491185143274 8.417622384910507 51.36105946286794 0 0 0
3144 1 4.774615823507529 10.430079039994132 51.485270513288356 0 0 0
3394 1 2.725520368945414 10.266511932208335 53.44329638747344 0 0 0
3397 1 4.372749943681118 8.127028323234788 53.791439634126306 0 0 0
3140 1 0.5746131598871779 10.917808183743803 51.934278185548855 0 0 0
3393 1 0.2158812054999667 8.481143837961094 53.55101553136849 0 0 0
3171 1 2.493489050038758 12.826990231058389 51.66815729363074 0 0 0
2594 1 0.06868288155136612 12.769550665120029 49.60815541576864 0 0 0
3429 1 4.475699329875113 13.090627306497357 53.45685279538492 0 0 0
3425 1 1.1246677051633105 12.66085681273736 53.93110155654432 0 0 0
3175 1 6.6309604771197685 12.808689254453144 51.35089362476987 0 0 0
3400 1 4.568922300698203 10.91891176388668 55.747390126015816 0 0 0
3368 1 4.342214246520103 6.2138471014726635 55.930870819498914 0 0 0
2704 1 8.931103209846114 12.559600913577924 50.099318266794626 0 0 0
3370 1 11.004572730542792 6.309052245556217 53.915609124797896 0 0 0
3366 1 6.371437505269744 6.431168122236492 53.412360564567116 0 0 0
3145 1 6.711717051931082 6.4692925792585765 48.978688840424056 0 0 0
3143 1 6.6183962761802935 8.035845212095195 51.10669994770337 0 0 0
2600 1 8.654935126900877 8.442314050483773 49.41642505742736 0 0 0
3120 1 12.78566276883197 6.227478186780148 51.55872653377633 0 0 0
2860 1 10.767743526591326 10.043151168500428 49.60205721312347 0 0 0
2900 1 12.863017035242175 8.105574234293755 49.26319976702521 0 0 0
2887 1 6.596795289377218 10.340932294861979 49.71486639655987 0 0 0
3116 1 8.785743179367277 6.216430975809832 51.90442761159306 0 0 0
3398 1 6.623913772586338 11.231752552411717 53.39270205339744 0 0 0
3147 1 10.744703233376717 8.148285595799479 51.90387621091719 0 0 0
3148 1 8.546566117741865 10.240482342334671 51.472732858 0 0 0
3401 1 8.38306288206261 8.541963088098752 53.495297772325124 0 0 0
3402 1 10.752525425484706 10.477690952395811 53.897554807329385 0 0 0
3433 1 8.95879025256907 12.837200153569237 53.082634288819584 0 0 0
3152 1 13.04785457183047 10.220901032241374 51.20379346171342 0 0 0
3437 1 13.380947314930886 12.391200868656268 53.47559679095539 0 0 0
3179 1 11.062560595474928 12.07704018104854 51.59343058591625 0 0 0
3376 1 13.083863793035441 6.3817008850656345 56.1522251837383 0 0 0
3372 1 8.51526225037941 6.4593850365521375 55.21538305450058 0 0 0
3403 1 10.886688432122899 8.454595752801385 55.552394642827984 0 0 0
3121 1 18.75574582642867 6.9452774113599105 49.05750544740637 0 0 0
3117 1 15.167156184243426 6.234957211869606 49.2671017873235 0 0 0
3124 1 17.139068804146916 6.409104183197234 51.42194491975417 0 0 0
3378 1 19.08026528344058 6.533357412010835 53.702595627216624 0 0 0
3405 1 12.855484580616993 8.4134194982586 53.4898929025586 0 0 0
3374 1 15.018516629559311 6.352333118968646 53.4531921260067 0 0 0
2921 1 18.83747220121233 10.586619646179548 49.20192103074802 0 0 0
2961 1 17.009784766823383 8.738201794272365 49.43740979968686 0 0 0
3151 1 15.0918510532755 8.440558781471548 51.397541640403546 0 0 0
3156 1 17.152538570263268 10.73518114705589 51.341537412135054 0 0 0
3406 1 14.948760019666333 10.179868245236412 53.54256009129288 0 0 0
3409 1 17.092892396668766 8.298840046070941 53.50434723215908 0 0 0
3155 1 19.185575692278807 8.72102253435407 51.60677549952052 0 0 0
3410 1 18.954092559680653 10.668338614944282 53.40543609171322 0 0 0
2904 1 16.98354739603467 12.593491898703641 49.01772552273669 0 0 0
3439 1 15.394044982794014 12.191708392018976 55.62661694144206 0 0 0
3132 1 25.613791296330003 6.736194603647073 51.612952902570385 0 0 0
3154 1 23.196078896912145 6.39664297161376 49.34766457536258 0 0 0
2899 1 24.9175224800093 8.894217436670175 49.16126413067612 0 0 0
3128 1 21.21080364314821 6.436667494471455 51.754164857073924 0 0 0
2715 1 20.99121407145585 8.284627530573834 49.709596235168306 0 0 0
3190 1 23.39539435388535 11.267568651571882 49.32849273442345 0 0 0
3159 1 23.162578257061803 9.078654980253917 51.510433222678074 0 0 0
3160 1 21.182820246117288 10.83441252288616 51.07696115111375 0 0 0
3164 1 25.56354720455298 10.626102880103591 51.027935198216014 0 0 0
3413 1 21.115223382370054 8.43539133739197 53.42201261699104 0 0 0
3414 1 23.329005651375134 10.910021486033004 53.56486753842816 0 0 0
3417 1 25.154594972788296 8.85896515030516 53.4856737686382 0 0 0
3445 1 21.379836489121153 12.78409782651773 53.19141744684816 0 0 0
3449 1 25.42437688976382 12.700947289080837 53.904251478139074 0 0 0
2931 1 20.984232342682525 13.019627078776224 49.12571328609538 0 0 0
3191 1 23.719424950044267 12.709145142308403 51.522313171387 0 0 0
3420 1 24.878464885039406 10.444526800578219 55.83222102393962 0 0 0
3447 1 23.185655229710594 12.46288772159892 55.73866560076087 0 0 0
2881 1 27.479314912567137 6.846131907998025 49.67443094838882 -1 0 0
3390 1 31.515830030336268 6.514599365316107 53.82153324532041 0 0 0
2911 1 29.848050802472727 8.53021537814489 49.67430075221461 0 0 0
3126 1 29.629735594303693 12.398372574402641 49.1215075086481 0 0 0
3136 1 29.252915401352457 6.646611542736403 52.01375984895209 0 0 0
3130 1 27.74442409621508 10.172731976981302 49.68214617734845 0 0 0
3163 1 27.393139321127123 8.643483930412478 52.223052120164276 0 0 0
3167 1 31.393300870705694 8.632538586218582 52.113368016763886 0 0 0
3168 1 29.340638494588635 10.887557144707408 52.04015824926099 0 0 0
3418 1 27.386078726542394 10.687588385596872 53.814714170040766 0 0 0
3421 1 29.206295054745656 8.76431297929012 53.88839284014146 0 0 0
3422 1 31.754065031341042 10.561556260359778 53.87919609645068 0 0 0
3195 1 27.45828783414653 12.995739794465113 51.373461275668255 0 0 0
3199 1 31.85272469685947 12.843869961255807 51.83109068701138 0 0 0
3392 1 29.286480285050885 6.363313533470513 56.07746852122011 0 0 0
3419 1 27.282515048119752 8.663623111603187 55.7893437042673 0 0 0
3423 1 31.376694492949092 8.295692743330934 56.22468202554145 0 0 0
3424 1 29.662233472779807 10.832410784615075 55.838553395318414 0 0 0
2850 1 2.251176597416881 14.867355545515503 49.46088120306631 0 0 0
3009 1 0.24108092459026229 16.89094931297889 49.65977151814657 0 0 0
2751 1 2.270047024156375 18.920628891611127 49.678671188585156 1 0 0
3176 1 4.7096107625217725 14.661620521668484 51.29553618568435 0 0 0
3203 1 2.1778038898148684 17.20230223856662 51.66344511788527 0 0 0
3426 1 2.7682374499580353 14.813643861204275 53.62662294841073 0 0 0
3458 1 2.8298340339150507 18.54559777140472 53.87791446981666 0 0 0
3461 1 4.663073795271684 16.89514922844106 53.01848284707105 0 0 0
3204 1 0.20758714220846913 19.25766999715835 51.64704482728294 0 0 0
3172 1 0.7806119074336909 14.73078165969784 51.326702578157686 0 0 0
3457 1 0.3038994941639002 16.464935985643304 53.94096176464195 0 0 0
3208 1 4.687689704144402 18.765437800910032 51.3849151136902 0 0 0
3462 1 6.560600274721047 18.872467476260738 53.55985524687626 0 0 0
3430 1 6.802149024669555 15.056349487378156 53.29412792122221 0 0 0
2737 1 6.526625522377672 18.99412544928656 49.34358179177949 0 0 0
3460 1 0.612620399608398 18.845372904555784 55.767811556621076 0 0 0
3459 1 2.953759841143293 16.875111782572837 55.595434767434966 0 0 0
2993 1 12.788724195080315 12.638401119641685 49.4567462651109 0 0 0
2324 1 12.798005524488639 16.613313298305485 49.26191098440352 0 0 0
3207 1 6.812087660763516 17.09918414977042 51.3863314087929 0 0 0
2927 1 10.958680687312578 14.686677024218248 49.61596139482702 0 0 0
2947 1 10.751547602793506 18.89246119123753 49.153558973643854 0 0 0
2956 1 8.843168199584495 16.759381846280867 48.986751418638214 0 0 0
2951 1 6.634628699324257 14.945583548557476 49.21694421057193 0 0 0
3180 1 8.611620069220557 15.003848815187412 51.600220711179006 0 0 0
3211 1 10.553812339804347 17.185888402673026 51.36323158076305 0 0 0
3212 1 8.596206655912226 19.195758280779945 51.20161018789852 0 0 0
3434 1 11.32665702875618 14.121813487074094 53.11679362447593 0 0 0
3465 1 8.929007336788587 17.18825805500444 53.45806785973657 0 0 0
3466 1 10.624267498607201 19.25635487520368 53.34267914044936 0 0 0
3216 1 12.93412348230522 18.877905954167325 51.240907373954315 0 0 0
3469 1 12.926171557906642 16.971319546909466 53.15708474652783 0 0 0
3184 1 13.224131061373058 14.5659496137437 51.61635902400964 0 0 0
2958 1 14.62629200840471 14.618441324951837 49.29759208449466 0 0 0
3183 1 15.01633005025392 12.636646448276712 51.53251407149933 0 0 0
3441 1 17.40096859110177 13.02601205464339 53.27057406073116 0 0 0
3187 1 19.204660714038056 12.519519212951295 51.09170386848184 0 0 0
2668 1 19.360314942563782 18.86915323678789 49.21087620745258 0 0 0
2992 1 14.515498859535064 18.86577946634216 48.58458365899784 0 0 0
3282 1 16.72982057457592 16.98369446228972 49.21150397310472 0 0 0
3188 1 16.790871310250502 14.870737367482446 51.12245020857301 0 0 0
3215 1 14.872110481986317 17.114989151717726 51.281500276989156 0 0 0
3220 1 17.13114826452212 18.817975732792878 51.13890753285696 0 0 0
3438 1 15.429341980351692 15.05331742304135 53.32770256412457 0 0 0
3470 1 15.13046257954342 19.09131912191279 53.34447951356491 0 0 0
3473 1 17.04324940048374 16.893930140159142 53.6758041406126 0 0 0
3474 1 19.19926408684531 18.551664801485707 53.12129278646436 0 0 0
3219 1 18.774664778673433 16.772863460886995 51.20098518696229 0 0 0
3442 1 19.41893056509583 14.835779590900414 53.69664366225759 0 0 0
2651 1 25.162610606951077 16.50895090778803 49.5887985709934 0 0 0
2935 1 23.319560428344182 18.923317630310276 49.51047374128814 0 0 0
3192 1 21.189700072257114 14.939600632160435 51.38884212723332 0 0 0
3196 1 25.345564859208572 14.821945335387058 51.911454980671 0 0 0
3223 1 23.316377859259198 16.826154471467603 51.17666978281836 0 0 0
3224 1 21.11006955419404 18.592073804915596 51.20276256752172 0 0 0
3228 1 25.432713073745393 18.748822258191847 51.529411233509876 0 0 0
3446 1 22.956487576434462 15.110166056184562 53.51615723679172 0 0 0
3477 1 21.11183256236209 16.898389204907776 53.3999082486548 0 0 0
3478 1 23.45484345803335 18.775602095312554 53.450651917646496 0 0 0
3481 1 25.43558254615375 16.578791000566245 54.012584435035286 0 0 0
3480 1 20.99074069263793 19.034359683179385 55.33935639354554 0 0 0
3479 1 22.69716358328841 16.93640117174921 55.68710842182106 0 0 0
3448 1 21.159959671303785 14.826288078407753 55.64991811923824 0 0 0
2372 1 27.699873045445692 14.942205261280785 49.09771985737573 -1 0 0
2144 1 29.6611800198699 17.205131870996762 49.59117794828546 0 0 0
3229 1 31.899139253857772 18.979752217451736 49.42757464848702 0 0 0
3222 1 27.03220310364183 18.9269500685993 49.40785912831711 0 0 0
3453 1 29.70983418297447 12.487867478561919 53.819180143223974 0 0 0
3225 1 31.288663933798556 14.724363088439205 49.23914192731919 0 0 0
3450 1 27.354259392027977 14.830215802909253 53.68739322220092 0 0 0
3482 1 27.257158332692285 18.70182882929096 53.85216791246038 0 0 0
3200 1 29.686445970887604 14.682802192443102 51.35788262229342 0 0 0
3227 1 27.423633336140977 17.032925015286587 51.01112150096577 0 0 0
3231 1 31.709020201498 16.67040477731748 51.598702666932255 0 0 0
3232 1 29.732617788623624 19.18164410538203 51.54936234530386 0 0 0
3454 1 31.86027602113915 14.691802197225607 53.75903283285957 0 0 0
3485 1 29.5264579780131 16.91962297977802 53.22151806449466 0 0 0
3486 1 31.74615678672616 18.83799741048954 53.663912005066635 0 0 0
3456 1 29.693079947428487 14.549205402168282 55.6028326239765 0 0 0
3483 1 27.684207307267044 16.790177823303885 55.578959185371275 0 0 0
3487 1 31.826558836961855 16.421055282847487 55.625111836384995 0 0 0
3012 1 4.14437168460288 25.358719148843647 49.99409135689968 0 0 0
3017 1 -0.2853339593078344 24.798115664209487 49.5322405062066 0 0 0
2694 1 2.315512922701713 23.34027124885314 49.50804019415399 0 0 0
2913 1 0.37727918236373925 21.3133931733657 49.68862700163311 0 0 0
3493 1 4.678392233826559 20.932535394890188 53.50543918545047 0 0 0
3235 1 2.3065641429990147 21.144541724721048 51.593386588710565 0 0 0
3240 1 4.644699203135248 23.065052824994947 51.33279444620537 0 0 0
3267 1 1.8163914517033126 25.08502619819274 51.75041780411142 0 0 0
3490 1 2.2985473453618153 22.951979640658863 53.617767853363524 0 0 0
3525 1 4.295489431622529 24.804753060768927 53.93167035944612 0 0 0
3521 1 -0.08111533802977722 25.05927593036187 53.609027591339334 0 0 0
3489 1 0.5822863765559395 20.95563499006211 53.92446167824631 0 0 0
3236 1 -0.1029681750770578 23.118753403201897 51.68723599888234 0 0 0
2957 1 6.402182147613313 22.790534209948163 49.08102253460303 0 0 0
3271 1 6.32649383280249 25.21643631775964 51.699267722932106 0 0 0
3494 1 6.424756646795123 22.893104853705275 53.385163446004086 0 0 0
3492 1 0.026944791966868158 23.113411313872003 55.7598600672529 0 0 0
3242 1 13.069680520909666 25.40521659165718 49.48649680732998 0 0 0
3239 1 6.628604244381014 20.968605932405083 51.418998703429395 0 0 0
2989 1 8.70917461209614 20.88042780415486 49.2439886547127 0 0 0
3270 1 8.385001101758203 25.21675750087152 49.62166969648569 0 0 0
3245 1 10.996063667837902 23.020744424897195 49.170060172137156 0 0 0
3497 1 8.397921843515363 20.931273439912783 53.646074860176746 0 0 0
3243 1 10.67635005227219 21.108210704245348 51.57797339692723 0 0 0
3244 1 8.557710670520704 23.079907434469995 51.16663159144201 0 0 0
3275 1 10.509318087401088 25.27287002997442 51.68924177307581 0 0 0
3498 1 10.656770332294336 23.044568956819955 53.27946118207342 0 0 0
3529 1 8.505083612385565 25.17320015781884 53.24337829987692 0 0 0
3248 1 12.545332291828975 23.370430199874942 51.088240503312555 0 0 0
3533 1 12.659744894467888 25.1722049450019 53.61085742122405 0 0 0
3501 1 12.907131400738955 21.313987704660107 53.67927787850087 0 0 0
2477 1 12.919024629473656 20.995264599618075 49.318059322665086 0 0 0
2512 1 16.883038552054597 20.88968758876207 49.57015856331972 0 0 0
3056 1 16.87998333438187 25.24861482239549 49.60971681228132 0 0 0
2997 1 14.945003622168544 23.202254966245945 49.52934726363699 0 0 0
3286 1 18.793124558550875 23.164494126886396 49.349822587241846 0 0 0
3247 1 14.88910899683133 20.949017620007865 51.335724257095904 0 0 0
3252 1 16.94762468157191 23.13896066579067 51.794469203552474 0 0 0
3279 1 14.772660010997525 25.057133394845742 51.76029675856146 0 0 0
3502 1 14.900348792316288 22.93941349769348 53.48298892096887 0 0 0
3505 1 17.194853273655696 20.651908258733574 53.04963000489665 0 0 0
3537 1 17.08487700632063 24.80552424393652 53.8263771155933 0 0 0
3283 1 19.202771028794757 25.18385317724963 51.628234277807294 0 0 0
3506 1 19.325397770333748 22.78963957166209 53.265839411917696 0 0 0
3251 1 19.20571522980235 20.867669758052394 51.144085121254335 0 0 0
3535 1 15.04239639091062 25.2598961578203 55.57450123268689 0 0 0
3503 1 15.248525236991911 20.896368468453673 55.422803597674545 0 0 0
2968 1 25.321962180865484 20.767436359304053 49.528621400792716 0 0 0
3028 1 20.67194592135923 25.45278466187954 49.205753545417416 0 0 0
3057 1 25.521838645049925 25.275815193135138 49.860289211055935 0 0 0
3255 1 23.397691022083766 20.995089412136814 51.585641588219225 0 0 0
3256 1 20.92769099358162 23.157749205715113 51.141412125502356 0 0 0
3260 1 25.329218088367444 23.032638280636608 51.72647821765418 0 0 0
3287 1 23.13042958089942 25.11589276960257 51.42515499799823 0 0 0
3509 1 21.230596679303492 20.712639008968242 53.19486683903044 0 0 0
3510 1 23.138358717646444 22.681391125021886 53.53610015155338 0 0 0
3513 1 25.287553732738715 20.883979713544306 53.88352864641402 0 0 0
3541 1 21.172374340280545 25.44729700171364 53.74035385964083 0 0 0
3545 1 25.44966571738269 25.310083358346024 53.6233642468313 0 0 0
3007 1 29.15158015290024 20.667201668724427 49.2170184819174 0 0 0
3262 1 29.15628422964232 25.189089855431074 49.54998116545744 0 0 0
3293 1 27.41232689211965 23.024340680541844 49.47564493631489 0 0 0
3517 1 29.40478023408325 21.05299432210085 53.8320966161374 0 0 0
3259 1 27.335240534191446 21.032079887825343 51.964219824588525 0 0 0
3263 1 31.55180186352929 20.947239495319213 51.65674097230427 0 0 0
3264 1 29.330985260992623 22.597819882102772 51.55278233528449 0 0 0
3291 1 27.546858239586914 25.15192603293176 51.75236764014 0 0 0
3295 1 31.107877653069956 24.847779800830697 51.42542148835602 0 0 0
3514 1 27.40499495400832 23.230101131780952 53.81877551247207 0 0 0
3518 1 31.712969127432448 22.822432471174704 53.54002948771315 0 0 0
3549 1 29.454371909907845 25.153505644086955 53.65356192427035 0 0 0
3551 1 31.508925308107845 25.289292403012077 55.97473383276175 0 0 0
3515 1 27.45054965199651 20.889615045467803 55.69482132998132 0 0 0
3047 1 4.489797697937179 29.110402189258654 49.538582493355506 0 0 0
3298 1 2.350055802354827 31.38863693709535 49.181094214177364 0 0 0
3268 1 0.18720189993418102 27.37819553136055 51.10712535018023 0 0 0
3272 1 4.0591832171691715 27.595236167499536 51.6919735837738 0 0 0
3522 1 2.1933108524428317 27.15463413023812 53.507735248372896 0 0 0
3299 1 2.06028188982188 29.51404415819248 51.32440482855521 0 0 0
3304 1 4.168383282169571 31.5587053877808 51.463511768427104 0 0 0
3554 1 2.2536295090976486 31.36797793373733 53.87274283058656 0 0 0
3557 1 4.213697036240406 29.574953812645724 53.567915128276816 0 0 0
3553 1 -0.12953003013958467 29.802099478346896 53.540726209690575 0 0 0
3300 1 0.3965659449664833 31.837062820912255 51.66840653693513 0 0 0
3063 1 -0.10686443394102045 29.47710920754385 49.37043824377846 1 0 0
3560 1 4.129057038102586 31.52472482759108 56.14697001308555 0 0 0
3528 1 4.082871394846168 27.063555931128317 55.67903992172372 0 0 0
3524 1 0.4567456273729023 26.913575051749433 55.281803024793795 0 0 0
3556 1 -0.08176226065139738 31.52389408642611 55.455734514269366 0 0 0
3050 1 6.398221695988415 31.557841966426516 49.42557552712406 0 0 0
3526 1 5.840076707884804 26.797035281112514 53.45215320039473 0 0 0
3052 1 8.961426348529596 29.28851591491886 49.1055314269412 0 0 0
3303 1 6.353356784397863 29.445909079657536 51.28664825203803 0 0 0
2763 1 10.380780721310416 27.02829156139365 49.34562497697418 0 0 0
3558 1 6.25750148776229 31.533752762389305 53.38322468008318 0 0 0
3053 1 10.370131695964432 31.784474913436718 49.62573990127507 0 0 0
3530 1 10.537663971244722 27.414302453723778 53.7612077765133 0 0 0
3276 1 8.367006033211723 27.62732311880022 51.53322466788709 0 0 0
3307 1 10.441129179953176 29.746322898699418 51.27684876760633 0 0 0
3308 1 8.168206690368693 31.48593939466418 51.66731790964915 0 0 0
3561 1 8.640785781748706 29.117614834214407 53.346858141382135 0 0 0
3562 1 10.571155256211771 31.899142997227674 53.34687857832095 0 0 0
3280 1 12.189009711125353 27.521421455332046 51.19482256451581 0 0 0
3312 1 12.553619932326118 31.69872421822683 51.51614678029711 0 0 0
3565 1 12.487492406549412 29.482425532780862 53.43440326991618 0 0 0
3559 1 6.446075854924725 29.155469616460167 55.34935288607527 0 0 0
3114 1 16.518142902711574 29.434994287288937 49.37269321969334 0 -1 0
2806 1 14.796096216265228 31.691541540181465 49.47409696584303 0 0 0
3090 1 18.84986112034333 31.4839585222716 49.26589345728296 0 -1 0
3068 1 14.545032410672453 27.294147849407985 49.89690369177214 0 0 0
2829 1 18.989912767418865 27.48269556953644 49.758263606345565 0 -1 0
3534 1 14.79106704690718 27.2025952156836 53.79473294056509 0 0 0
3284 1 17.16514489995357 27.107522700058844 51.737082076272976 0 0 0
3311 1 14.639132265812748 28.921909072568216 51.80186195265566 0 0 0
3316 1 16.828668047606925 31.399243510726137 51.218616017411385 0 0 0
3566 1 14.57560098104812 31.436262055443503 53.14370441789424 0 0 0
3569 1 16.712369693324316 29.372095877214267 53.46155744418319 0 0 0
3570 1 18.930050494007848 31.72775385932635 53.42865150351057 0 0 0
3315 1 19.012273213389737 29.533370652133396 51.55075021080488 0 0 0
3538 1 18.702454119742313 27.384907852400776 53.664273780191564 0 0 0
3540 1 16.740814560023416 27.402615423033964 55.9674250621264 0 0 0
3058 1 22.771094661406146 27.253256608784987 49.5629405507289 0 0 0
3313 1 21.105256712985422 29.638593179251522 49.24869264927404 0 0 0
3290 1 24.965862188521346 29.26738634119374 49.68636113235702 0 0 0
3288 1 20.81871499229711 27.6015648544586 51.582910574734704 0 0 0
3542 1 23.165191434467904 27.486600979983066 53.284264989109786 0 0 0
3319 1 23.050977186335402 29.788163769500223 51.48416977326961 0 0 0
3320 1 21.076459791403092 31.595782596928974 51.465353965552595 0 0 0
3324 1 25.24025392167122 31.48766275863902 51.851213074611266 0 0 0
3573 1 20.926379952112754 29.61509712357685 53.465263693470845 0 0 0
3574 1 22.969163663133276 31.690281302095308 53.59579196830145 0 0 0
3577 1 25.37981457399671 29.37464076366345 53.97236206641455 0 0 0
3292 1 25.202456663023824 27.51772680196361 51.6862531676883 0 0 0
3576 1 20.956927662462057 31.55887378871578 55.68369412039118 0 0 0
3226 1 31.634356649926758 27.02792751460247 49.46484868935309 0 0 0
3322 1 27.313209016503873 31.54546217193419 49.63526087957737 0 0 0
3325 1 29.69778321213465 29.43257678797981 49.52929069153255 0 0 0
2843 1 27.189476429753547 27.714342494833613 49.48740604339189 0 -1 0
3065 1 31.710010987438924 31.47011240869629 49.52408247782316 0 0 0
3546 1 27.169684768544034 27.139072891287057 53.43953732202989 0 0 0
3550 1 31.603065831397426 27.20745512227221 53.733238070183994 0 0 0
3296 1 29.75187660073793 27.466696054346027 51.08033803739656 0 0 0
3323 1 27.545500205412377 29.50084583149017 51.47119595839906 0 0 0
3327 1 31.62789745419782 29.30650973887622 51.81243747943333 0 0 0
3328 1 29.749052626238612 31.727532712836027 51.55637237526713 0 0 0
3578 1 27.52555337955541 31.655461846882606 53.63197159163934 0 0 0
3581 1 29.61202735542946 29.31518244527868 53.43268084912244 0 0 0
3582 1 31.15187114533651 31.398815607713868 53.93871266967473 0 0 0
3331 1 2.4014205337142682 0.09618628248625026 55.685807715049435 0 0 0
3332 1 0.16459906341160518 2.431611152066567 55.525148342888166 0 0 0
3363 1 2.502350087384804 3.832151910040495 55.4215385069504 0 0 0
3586 1 2.125087622869589 2.427288954704425 57.73601175987473 0 0 0
3592 1 4.661503266460766 2.091244401397268 59.63476312318225 0 0 0
3619 1 2.3544926212111505 4.110291300926842 60.02282654142122 0 0 0
3621 1 4.062841031604704 3.8100142115687503 57.85525668284344 0 0 0
3588 1 0.5111846387400271 2.1478078689180107 60.21739963203445 0 0 0
3587 1 2.5468595896517865 0.21809775828286307 59.81575389451253 0 0 0
3617 1 0.43045617943588543 4.577780234499932 57.670221422396956 0 0 0
3589 1 4.459526371891376 0.4406306880102132 57.453835224027564 0 0 0
3842 1 2.5575306941092455 2.3149425258705367 62.20593413704502 0 0 0
3585 1 0.3020666877993582 0.21044276127866066 57.70808553631115 0 0 0
3877 1 4.676464722449596 4.627077925388196 61.523364663388946 0 0 0
3335 1 6.574835466318737 -0.2041133605302632 55.60429186324987 0 0 0
3841 1 0.6445389324515347 0.10324310096361522 62.31664898610866 0 0 0
3371 1 10.474524681814549 4.413958439824818 55.42331479516749 0 0 0
3340 1 8.392339246565953 1.910299013797672 55.51149069889245 0 0 0
3590 1 6.429082736923885 2.554608744695646 57.23031542575693 0 0 0
3339 1 10.781985090440616 0.5010901583942704 55.798789389204615 0 0 0
3367 1 6.292783410313035 4.419402189160914 55.416319468176184 0 0 0
3623 1 6.477242049121995 4.558444431941039 59.32327491161754 0 0 0
3591 1 6.5282538220315605 0.4876284836114147 59.4576208884112 0 0 0
3594 1 10.277427820662721 2.4668925119363108 57.73646058807029 0 0 0
3596 1 8.14577901393619 2.644876758831287 59.77745335383704 0 0 0
3625 1 8.445941270403138 4.559434181742718 57.47270683542716 0 0 0
3627 1 10.609434114729314 4.287249740458956 59.848792929078726 0 0 0
3628 1 8.687903970390684 6.297589783160907 59.609779921462525 0 0 0
3600 1 12.844740478617553 2.0966675151515632 59.31431192035767 0 0 0
3593 1 8.395597249399348 0.1901979374786879 57.81317164215123 0 0 0
3595 1 10.527824128012808 0.5223516857618921 59.53398580623615 0 0 0
3850 1 10.31341326017595 2.4006894889177524 61.8380109621854 0 0 0
3853 1 12.304923410915345 0.24534883615350897 61.65928018403446 0 0 0
3849 1 8.30196206578448 0.15846324208295243 61.55053145552619 0 0 0
3885 1 12.727508671152195 3.975599142666976 61.715601684875764 0 0 0
3878 1 6.572271860823872 6.779934725715142 61.81845971054658 0 0 0
3344 1 12.7454060946485 2.1872991328942883 55.71729232623035 0 0 0
3375 1 14.863600101677028 4.374929249930649 55.71938801987079 0 0 0
3597 1 13.115586087050618 0.23059445522695693 57.498059453683 0 0 0
3629 1 12.587080407166448 4.209041250401382 57.76729451168201 0 0 0
3379 1 19.3016204581933 4.231732685446167 55.72078874345063 0 0 0
3598 1 14.896996784550497 2.473688972426026 57.728878495973085 0 0 0
3604 1 17.10074591196052 2.6422322604862605 59.519011557614924 0 0 0
3631 1 14.5822822548805 4.0701211237828385 59.75794762278931 0 0 0
3633 1 17.02683835782739 4.526218820161436 57.48670091112406 0 0 0
3635 1 19.04194152974394 4.615951819465418 59.55048315494214 0 0 0
3601 1 16.607621013755637 0.22344169761980864 57.57648163264017 0 0 0
3603 1 19.467522317289486 0.5742152167779417 60.104630448046336 0 0 0
3602 1 19.45550228714306 2.253104389227212 58.09200070765863 0 0 0
3599 1 14.837218845306612 0.344433636913785 59.52268495848326 0 0 0
3858 1 18.954891213672255 2.4133386129989636 61.65893792201851 0 0 0
3636 1 17.162029807621828 6.449844560067526 59.671492131069975 0 0 0
3857 1 16.967355333297185 0.29825842967361693 61.80691683865063 0 0 0
3352 1 20.994784963989115 2.4856058852581637 55.812667510814904 0 0 0
3356 1 25.13944395207091 2.2437021583362444 55.562012264791214 0 0 0
3351 1 22.981674568015965 0.732292624983312 55.40790785952087 0 0 0
3383 1 22.986951233911014 4.346273542123198 55.79573886737079 0 0 0
3606 1 23.493361383250445 2.4966430492143146 57.94748998265086 0 0 0
3608 1 21.50825648671545 2.544732801259042 60.22588858116742 0 0 0
3612 1 25.63937925055105 2.2566109543845796 60.337693326264976 0 0 0
3637 1 21.111640993379606 4.560509469608673 57.698605124010804 0 0 0
3639 1 23.445068218998138 4.420553315327323 59.79658029063048 0 0 0
3641 1 25.503926911063314 4.3662857494032385 57.53847822005119 0 0 0
3609 1 25.0906563338016 0.2257532923756656 57.596758056165804 0 0 0
3605 1 21.497704972981666 0.3437919965410556 57.838695012685754 0 0 0
3607 1 23.481752557637567 0.41148511137578386 59.829118378664226 0 0 0
3865 1 25.520841920339002 -0.1646846889022153 62.27839710651206 0 0 0
3359 1 31.660354420307897 -0.039632016752829916 55.85513465852886 0 0 0
3391 1 31.658457172983844 3.9239186192158724 56.143525652395546 0 0 0
3355 1 27.186593561402344 0.25168563540435357 56.00511379405097 0 0 0
3387 1 27.462886880409037 4.28012174401963 55.84231102424895 0 0 0
3610 1 27.679571396278515 1.9862682178569884 58.03180161193019 0 0 0
3614 1 31.549349596158248 2.078839723655284 57.98284275622632 0 0 0
3616 1 29.569272533581817 2.500945486715622 60.05149465868185 0 0 0
3643 1 27.20579409896729 4.528960202602311 60.153325457675855 0 0 0
3645 1 29.449062359201246 4.213872705151117 57.996170086559566 0 0 0
3647 1 31.61743630313272 4.292929499981006 59.96324335147609 0 0 0
3615 1 31.903576838420914 0.10749662352121565 60.468780191799986 0 0 0
3611 1 27.52938407913202 0.05734242706763528 60.115080047698 0 0 0
3613 1 29.564432324806706 0.22582430514895052 58.19208097099254 0 0 0
3869 1 29.57728362912012 0.14667056336300568 61.943411081147545 0 0 0
3396 1 0.08360447514238765 10.405658248066393 56.233144473847936 0 0 0
3427 1 2.654471527648672 12.741295965485396 55.93083981998406 0 0 0
3874 1 2.2023445686229537 6.46155423451957 62.06587822705202 0 0 0
3620 1 0.3542642447674352 6.251903011815414 59.763267035363356 0 0 0
3618 1 2.3161792394977847 6.2953342258751075 57.86738465571822 0 0 0
3624 1 4.3624683421867525 6.702772891636976 59.60043892556674 0 0 0
3364 1 0.18561105681407877 6.08668384291212 55.583498565271015 0 0 0
3395 1 2.115068396529389 8.09296520919542 55.53165736952148 0 0 0
3650 1 2.6577762301077326 10.330928518744889 57.51074800591152 0 0 0
3651 1 2.56839375010491 8.127472915467791 59.88739906942733 0 0 0
3653 1 4.724699121611694 8.408900564066066 57.30619052113323 0 0 0
3656 1 4.452782022909113 10.731723402466407 59.68817670342716 0 0 0
3652 1 0.3279675941839762 10.436961603078798 59.76600465917853 0 0 0
3649 1 0.5487593899590729 8.375088984125107 57.92566452061974 0 0 0
3685 1 4.952136979856674 13.00397078200384 57.98544664853662 0 0 0
3681 1 0.16778982198893888 12.568396166370935 57.978996578486566 0 0 0
3683 1 2.931005159678015 12.927691774876097 59.52849606456845 0 0 0
3909 1 4.535742511628479 8.892274235633058 61.59339377744108 0 0 0
3905 1 0.5029314007173104 8.753665315563302 61.90172651861767 0 0 0
3941 1 4.863760281562363 12.712329130284088 61.88679722895813 0 0 0
3906 1 2.400163340274103 11.143731684643392 62.11779106720351 0 0 0
3937 1 0.23297862526522836 12.946703603540982 61.38153520982891 0 0 0
3408 1 12.786215853520604 10.829691718508837 55.51704986668498 0 0 0
3632 1 12.618348190522658 6.609525006155447 59.631156644932865 0 0 0
3399 1 6.440926511689279 8.880653515973071 55.3683032587907 0 0 0
3622 1 6.644827487212441 6.848582213171312 57.38366739535518 0 0 0
3654 1 6.699773500679114 10.696960238020303 57.71948583779436 0 0 0
3404 1 8.442453433288192 10.865225992948172 55.67308693560264 0 0 0
3626 1 10.5260229780833 6.4859968224109625 57.51700251007427 0 0 0
3431 1 6.3552638609621726 12.807415958657387 55.361597413115575 0 0 0
3687 1 6.767624665527104 12.740115055827118 59.84536494052513 0 0 0
3655 1 6.554746035326254 8.667569840766058 59.58186264775192 0 0 0
3657 1 8.9118010139106 8.556948534193742 57.72729978109624 0 0 0
3658 1 10.38358493038155 10.627843596040016 57.55839007963698 0 0 0
3659 1 10.678603376839765 8.486710793552877 59.77063804023629 0 0 0
3660 1 8.694185403460933 10.772052685001265 59.66566278997636 0 0 0
3661 1 12.750982078796692 9.038198444753846 57.540712641729435 0 0 0
3689 1 8.06394823332145 12.837384085134799 57.22352108397688 0 0 0
3664 1 12.539329113353787 10.687312181791853 59.6837792587912 0 0 0
3435 1 10.903161045602562 12.853034643516146 55.57466451273676 0 0 0
3691 1 10.811773498375072 12.935311960246143 59.123809451807006 0 0 0
3693 1 12.860598280369612 12.558663976409925 57.28710596607702 0 0 0
3412 1 16.834459875596465 10.070248371143428 55.441644039989704 0 0 0
3380 1 16.910890921993378 6.3179894275425506 55.756056368809524 0 0 0
3407 1 14.901107692614005 8.312103906971506 55.64960851748549 0 0 0
3411 1 18.999526447371007 8.425163027652035 55.80589159734266 0 0 0
3886 1 14.765612357517591 6.43999416152202 60.94881440589523 0 0 0
3634 1 19.03765977224073 6.579671242105951 57.7709930262536 0 0 0
3630 1 14.815862686087831 6.278588226676118 57.88753111260656 0 0 0
3662 1 14.805901019452174 10.590258172893913 57.4622626608658 0 0 0
3663 1 14.736410035933414 8.7249515113516 59.599787528145015 0 0 0
3665 1 17.10447157149004 8.453675316701691 57.863794464768176 0 0 0
3668 1 16.977518490213622 10.64395627103875 59.724716321958 0 0 0
3666 1 19.362061450001317 10.864090796381653 57.9052942839482 0 0 0
3667 1 18.869543375072052 8.933780048528146 60.18663785690389 0 0 0
3695 1 15.062036664640344 12.208189380232252 59.73783456631117 0 0 0
3699 1 19.332613115056795 12.918532412221715 60.070641171323096 0 0 0
3416 1 21.03281048759006 10.275658167596898 55.51738823159623 0 0 0
3384 1 21.185578185708007 6.341654286418406 55.59957767005587 0 0 0
3638 1 23.18018593645512 6.259660237176956 57.95083588802522 0 0 0
3388 1 25.010793141134876 6.5403155191259215 55.69290986924983 0 0 0
3640 1 20.802862617962248 6.80077154712906 59.879152505708774 0 0 0
3644 1 24.65108598612858 6.6359322008983455 59.99586130609206 0 0 0
3415 1 23.072698310138023 8.613358421335636 55.635778545031805 0 0 0
3669 1 21.387027201746555 8.49055393267947 57.66663046007203 0 0 0
3670 1 22.63557013081864 10.687009805134915 58.016489383049596 0 0 0
3671 1 23.050073573023404 8.902182989513335 60.079248525059555 0 0 0
3672 1 20.976060604294496 10.866381453259688 60.31264472457811 0 0 0
3673 1 25.19090364443312 8.720564367036403 57.786418430150036 0 0 0
3676 1 25.003208968501838 10.67871746947686 60.09730014830698 0 0 0
3705 1 25.507685525877346 12.242587014688153 57.76876739647713 0 0 0
3703 1 23.053505025188013 12.631678766634176 60.09606929546242 0 0 0
3701 1 21.09620087958754 12.829622163786969 57.89073713658707 0 0 0
3929 1 25.153827390576232 8.875704490471046 62.49847965868302 0 0 0
3646 1 31.392236512835307 6.114848111062585 57.76757639209368 0 0 0
3648 1 29.50845075135899 6.270628531186812 59.960390010815445 0 0 0
3451 1 27.466950843250995 12.739600497153049 55.69774551458519 0 0 0
3642 1 27.04075679009282 6.282875768252059 58.21845785656864 0 0 0
3674 1 27.637929146243113 10.503654151025444 57.53222528077991 0 0 0
3675 1 26.730266880057727 8.591416382395382 60.19290209835707 0 0 0
3677 1 29.36709792923229 8.314596274301223 58.38466576253806 0 0 0
3678 1 31.324950199314927 10.46234975267933 58.036852171471516 0 0 0
3679 1 31.414530173819465 8.272340166277258 59.9463220019486 0 0 0
3680 1 29.138645921742 10.61612812724 59.75725056924106 0 0 0
3711 1 31.477931295705567 12.919019662109767 59.99367349990984 0 0 0
3707 1 27.187924542549652 12.623909189005026 59.75203653352926 0 0 0
3902 1 32.15402818742029 6.614507672036367 61.79934797229923 0 0 0
3930 1 27.386253583663766 10.56965527120639 62.28654537705744 0 0 0
3934 1 31.581519921694017 11.07656460236578 61.64296751240737 0 0 0
3965 1 29.39428284644662 12.613875952774897 61.88155639293449 0 0 0
3432 1 4.899337045662651 15.0486313119952 55.652190529722525 0 0 0
3428 1 0.4397374421497675 14.64704456119916 55.76642398301881 0 0 0
3464 1 4.7365362546110505 19.078736111613143 56.01089722956645 0 0 0
3682 1 2.7001076609958847 15.137105949268175 57.882241291719794 0 0 0
3688 1 4.651009969266695 14.868555036604878 60.13941514342241 0 0 0
3715 1 2.300878591563238 17.044733846830077 60.067572657138875 0 0 0
3717 1 5.001605136022137 16.53247829835257 57.62420459067437 0 0 0
3720 1 4.507964088691115 18.89505018374292 60.02777805670248 0 0 0
3716 1 0.017380508029019172 18.81220348944207 59.87754599754886 0 0 0
3713 1 0.0796751538665299 16.450355895788736 57.575509043426926 0 0 0
3714 1 2.5953137346752575 18.6843597879405 57.795878300622604 0 0 0
3684 1 0.8598460534664201 14.86660112712306 59.79638189046736 0 0 0
3969 1 0.33200660238503527 16.637877583638023 61.86377831090452 0 0 0
3719 1 6.38023104599133 17.119626385396945 59.90373466656514 0 0 0
3970 1 2.3753943437659752 18.804134324814026 62.44545931127668 0 0 0
3472 1 13.06788340874948 18.83692661424901 55.31261515876808 0 0 0
3440 1 13.0281717718195 15.016186501229354 55.21909512535074 0 0 0
3686 1 7.309258028014756 15.38577010668761 57.41248535211376 0 0 0
3467 1 10.941399282067923 16.75936356169631 55.024700277859075 0 0 0
3463 1 6.995599246713771 16.803276533013268 55.2682445725823 0 0 0
3468 1 8.777533079341726 19.397629787919595 55.69604110712948 0 0 0
3718 1 6.72384270500355 19.0822515202624 58.092835665352865 0 0 0
3436 1 9.02518726368695 14.721233876398497 55.131013002727826 0 0 0
3690 1 10.757837295663075 15.168493447478818 57.32971285682277 0 0 0
3692 1 8.890880772893926 14.985051975138386 59.89201606077768 0 0 0
3721 1 9.097562791368409 17.525030891800533 57.47236810896182 0 0 0
3722 1 10.881858498339477 19.388559836193302 57.4499879964759 0 0 0
3723 1 10.846229872129877 17.170144781426103 59.784148694816665 0 0 0
3724 1 8.81616642794845 19.10358514261268 60.00163251452735 0 0 0
3696 1 12.748279261578787 15.025629989324862 59.126294275027185 0 0 0
3725 1 12.834140039076436 17.296727625702687 57.25506649325311 0 0 0
3728 1 12.850359651247555 19.13955434194103 59.45570379860366 0 0 0
3475 1 18.925635641511036 16.529521658658975 55.764039230348786 0 0 0
3476 1 16.836017812377875 18.704162388478228 55.68104236153854 0 0 0
3471 1 14.811199085375616 16.904549687957704 55.27001646709413 0 0 0
3443 1 19.09001603905194 12.375702015906452 55.64111708926046 0 0 0
3697 1 16.962651781652273 12.43511378531679 57.6375641243181 0 0 0
3444 1 16.929110252400342 14.331655797524945 55.80213602373322 0 0 0
3694 1 14.906740848793408 14.426761284116527 57.55325945313955 0 0 0
3700 1 16.381472977833553 14.70082559160493 59.66806158646977 0 0 0
3726 1 15.133629315609019 19.28924970735004 57.6615563410595 0 0 0
3727 1 14.407575926373037 16.778186104253972 59.33225259130907 0 0 0
3729 1 16.784670291781097 16.53604626365915 57.634811042993206 0 0 0
3732 1 17.134262073335716 18.988986533870257 59.5891060402287 0 0 0
3698 1 18.8850712505493 14.828398525808913 57.78483682614291 0 0 0
3731 1 18.645190207308488 17.002586260764378 59.65815724454751 0 0 0
3730 1 19.171744308968925 18.637608012021765 57.54020525520267 0 0 0
3986 1 18.874016169067815 18.769539275381465 61.77466096514506 0 0 0
3985 1 16.521087050989685 16.589945156725662 61.56389443763932 0 0 0
3452 1 25.446008079180324 14.592653192044546 56.18760014677853 0 0 0
3484 1 25.21362411754234 18.861688257743552 55.93601094522652 0 0 0
3702 1 22.90152424565486 14.80302006595393 57.69122205113232 0 0 0
3704 1 21.079000555918167 15.026069824591417 60.03654761185032 0 0 0
3708 1 25.37057879250906 14.719965263901376 59.63329395484936 0 0 0
3733 1 21.110654112739162 16.7457719134452 57.79862879615568 0 0 0
3735 1 23.377440980602614 16.438527358179023 60.1411233638812 0 0 0
3736 1 20.97152770820813 18.61450962347528 60.07735617197194 0 0 0
3737 1 25.208819545975427 16.719416052440398 57.597607467274635 0 0 0
3734 1 23.05113854309084 18.705268408529072 57.889342483544915 0 0 0
3740 1 25.485579233725904 18.738736331676034 59.426521596567554 0 0 0
3993 1 25.24095210323155 17.19032103830394 62.079815384423064 0 0 0
3990 1 23.15043116050866 19.06330813219458 61.349338200366226 0 0 0
3488 1 29.678316531006452 18.83500083501955 55.63782824054174 0 0 0
3455 1 32.03754529157964 12.648517038329189 55.777413027178014 0 0 0
3709 1 29.38197066328469 12.564317688645852 57.81346084195236 0 0 0
3706 1 27.712208480675052 14.550604726339687 57.88971116229914 0 0 0
3710 1 31.292424966942775 14.484143109597062 57.81886196526099 0 0 0
3712 1 29.48852670122353 15.081979325536869 60.19300963539939 0 0 0
3738 1 27.24478488927367 18.663527726095356 57.3347260752691 0 0 0
3739 1 27.286392612710088 16.807707694705243 59.70311161823504 0 0 0
3741 1 29.7928368962143 16.8973440694029 58.00716094879351 0 0 0
3742 1 31.76392784220369 18.869867380476418 57.67306505518109 0 0 0
3743 1 31.84382215372822 16.663181254182014 59.93713309280151 0 0 0
3744 1 29.550048885073245 18.910360422889706 59.686486029325195 0 0 0
3997 1 29.535773768155753 16.948603694068325 62.03842034192788 0 0 0
3998 1 31.555915633125277 18.89709182571118 61.70252310503162 0 0 0
3962 1 27.50682783968995 15.337270399963376 61.85901780026111 0 0 0
3523 1 2.3526112851177126 24.792788788263504 56.228849587608195 0 0 0
3496 1 3.995991591752968 22.674223050521054 55.82064471053511 0 0 0
3491 1 2.5140512778715456 20.543508787262855 55.67381054353117 0 0 0
3746 1 2.569662796049902 22.789706413226206 58.27599495303336 0 0 0
3747 1 2.103200165462127 20.907233131157 60.01788770670668 0 0 0
3749 1 4.571472740279936 20.886743872489557 57.930608780392134 0 0 0
3752 1 4.690669886634649 22.685787298995013 60.0761449623457 0 0 0
3779 1 2.3739119396412205 25.151014003792735 60.041494863554774 0 0 0
3781 1 4.586888785803241 24.848546873937575 57.85101836913389 0 0 0
3745 1 0.5128777355231687 20.96664221047501 57.677422045980634 0 0 0
3777 1 0.35078893382406023 25.238711492902482 58.03108660206486 0 0 0
3748 1 0.23618577006364622 23.186191345171338 60.26227909258532 0 0 0
3527 1 6.390088111476743 25.0428878978036 55.50721166555271 0 0 0
3495 1 6.257532935316627 21.36632666711313 55.77007902275069 0 0 0
3783 1 6.702514905831886 24.911337690295007 59.657328655674725 0 0 0
3751 1 6.698904656439998 21.028788359717737 59.97687179731924 0 0 0
4002 1 2.4190224768420157 22.680546576787943 61.8906306704227 0 0 0
4001 1 0.05804320596595054 21.203073507098928 62.126141065870506 0 0 0
3499 1 10.77930789614302 20.98120364356083 55.46904381545295 0 0 0
3500 1 8.434836742913545 23.040623830030498 55.38631368635286 0 0 0
3750 1 6.457460963270771 22.960032344180703 57.85401683725471 0 0 0
3531 1 10.376905745996448 24.993198668567803 55.18130210489896 0 0 0
3753 1 8.475394263795167 21.241051101665754 57.74863872396003 0 0 0
3754 1 10.690466625130277 23.396308291554632 57.305779469924964 0 0 0
3755 1 10.59705076640757 21.192451208567984 59.71562728137084 0 0 0
3756 1 8.877335122160012 23.665035559540033 59.505695950777145 0 0 0
3785 1 8.780214277634762 25.14646321734702 57.2431431669861 0 0 0
3787 1 10.954283582623132 25.31357427151536 59.209115722025025 0 0 0
3757 1 12.889312905175919 21.171838597370837 57.44917226673037 0 0 0
3789 1 13.136952756625996 25.434949947327592 57.69150743514337 0 0 0
3760 1 12.883826007523057 23.12213642946148 59.40505649964702 0 0 0
3539 1 19.11535031968771 25.29765488328439 55.8755042375738 0 0 0
3507 1 18.95524513774298 20.938614771845504 55.53786380268202 0 0 0
3504 1 12.873274178409515 23.59490003606606 55.66437199606059 0 0 0
3508 1 17.304229654027047 23.078817302430217 55.620029033124375 0 0 0
3758 1 15.028290710576593 23.135051372847123 57.274352843339166 0 0 0
3759 1 14.85719901378758 21.329350187233377 60.04555032210685 0 0 0
3761 1 17.121981653278755 21.0444889188408 57.75760520887416 0 0 0
3764 1 16.605994936320634 23.04030432883814 59.664643558404705 0 0 0
3791 1 14.857565161937764 25.657586320516817 59.89210172090546 0 0 0
3793 1 17.039891561653864 25.258193539739235 57.7469433304423 0 0 0
3762 1 18.985748940117187 22.98162620920394 57.652002575616436 0 0 0
3763 1 19.176430868553723 20.77304180840552 59.37445754631894 0 0 0
3795 1 19.36475241814053 25.358450753465153 59.38779873246743 0 0 0
4018 1 18.98340611914299 23.52510085761614 61.423457130661134 0 0 0
4049 1 17.1050822302864 25.38791125439859 61.65240298399845 0 0 0
4017 1 17.07361686341579 20.882446469399927 61.433194374989846 0 0 0
3512 1 21.00854149025749 22.977247812955216 55.47018980393617 0 0 0
3543 1 23.343005987820494 25.541661854107545 55.855589551668096 0 0 0
3516 1 25.39360419752255 23.060569857262912 55.49660951616315 0 0 0
3511 1 23.125346173356373 20.75910644991729 55.66784550884378 0 0 0
3765 1 21.043034871759726 21.178860305174 57.47271924391302 0 0 0
3766 1 23.141250285681195 22.996156896515938 56.91137539030361 0 0 0
3767 1 23.094414268335814 21.05863936144468 59.513579517751445 0 0 0
3768 1 21.374561196168674 22.983556731110806 59.6888204049061 0 0 0
3769 1 25.258287680401178 21.169538804703652 57.730258284715255 0 0 0
3772 1 25.428980386984765 23.185483636185918 59.43102248490784 0 0 0
3797 1 21.1440433577507 24.99883727836137 57.58714358015995 0 0 0
3799 1 23.41919305392157 25.067445999862855 59.93680422516113 0 0 0
3801 1 25.35681077985118 25.293627389708895 57.67296321127051 0 0 0
4057 1 25.25770794180527 24.63169583176305 62.097028487755246 0 0 0
4021 1 20.65990560372575 21.243047115011578 61.74461496363877 0 0 0
3520 1 29.906600573825116 23.059891045707722 55.770724833898136 0 0 0
3519 1 31.74815939209782 20.67573358813566 55.811917975914305 0 0 0
3547 1 27.49528597591711 25.132282016782234 55.57287031789879 0 0 0
3775 1 31.81010749178499 21.07160737076741 59.84863109215771 0 0 0
3771 1 27.5547693163694 20.902672018788216 59.719885807785076 0 0 0
3770 1 27.559186765379703 22.780267881827438 57.41166146824849 0 0 0
3773 1 29.40624113702422 20.666997349194897 57.659410919470446 0 0 0
3774 1 31.91693609086222 22.969158166222357 57.864875172744505 0 0 0
3776 1 29.352320415710626 22.97135513647201 59.68086186306549 0 0 0
3803 1 27.3018930709645 25.032869081215967 59.97028501482131 0 0 0
3805 1 29.59959237271483 24.689418767954166 57.82038585339559 0 0 0
3807 1 31.606778566114993 25.252946201586877 59.89237506497586 0 0 0
4026 1 27.44645660374001 22.50326600016331 61.88741252483016 0 0 0
4029 1 29.554277515302637 21.054656646706217 62.07426019271558 0 0 0
4030 1 31.488767777701266 23.12085583793294 62.11882357096285 0 0 0
3555 1 2.4608515720471678 29.227637695103983 55.64670750971211 0 0 0
3784 1 4.176104207161351 26.835719720643883 59.90752192503267 0 0 0
3780 1 0.39267028846273755 27.200678861532005 60.15196776975969 0 0 0
3778 1 2.0415270289829706 27.176012721241353 57.46599274991511 0 0 0
3810 1 2.1049283322803922 31.511159384790936 57.994764997707456 0 0 0
3811 1 2.2836764244760483 29.35127364269796 59.951344514270374 0 0 0
3813 1 4.135757765332873 29.195881352531813 57.939776497820105 0 0 0
3816 1 4.216171752489726 31.63516977246329 59.65661573412084 0 0 0
3812 1 -0.05718201606836288 31.258693805068962 59.91582936697802 0 0 0
3814 1 6.521835317651932 31.105333395277608 58.11572777703879 0 0 0
3815 1 6.131593616749343 28.996967837714337 59.97542661824773 0 0 0
3809 1 0.214166856444748 29.37238795966803 57.88920062233823 0 0 0
3563 1 10.6797059510679 29.48610489118856 55.54728455105677 0 0 0
3568 1 12.883274178290543 31.86680341234169 55.38795249923408 0 0 0
3564 1 8.69601496053744 31.274100470370314 55.767947451065695 0 0 0
3532 1 8.45593051530992 27.248970992283834 55.56470621674019 0 0 0
3782 1 6.257552080867629 27.154250592352277 57.426134345086886 0 0 0
3786 1 10.82874634616585 27.386733017431073 57.35754166751378 0 0 0
3788 1 8.301338082175004 27.415318583669432 59.45180860846156 0 0 0
3817 1 8.285277272232763 29.368593736956143 57.53646077398229 0 0 0
3818 1 10.656383133320526 31.429684883383512 57.979778529839365 0 0 0
3819 1 10.960746047609502 29.16505046742568 59.39961615126777 0 0 0
3820 1 8.581380705260305 31.558124405174933 59.33822879777028 0 0 0
3821 1 12.738599417343234 29.85580903039068 57.35066274646461 0 0 0
3792 1 12.977003888920724 27.71393167167017 59.86603019600492 0 0 0
4074 1 10.583324841991741 31.148999291244717 61.14375531492057 0 0 0
3824 1 13.205653665375163 31.60911850171245 59.53705269424741 0 0 0
3536 1 12.777801162416036 26.954850874530997 55.38352048362864 0 0 0
4042 1 10.47894252076495 27.31664224530511 61.49178194960399 0 0 0
3572 1 16.95043870822759 31.65436530789848 55.50354257667778 0 0 0
3571 1 19.102643001312558 29.72486732274132 55.00322966131842 0 0 0
3567 1 14.669648609992176 29.334115172717166 55.49378893546258 0 0 0
3790 1 14.652219203934424 27.61150508079603 57.391894342055 0 0 0
3796 1 16.82327839375926 27.32698815301992 59.68409540913245 0 0 0
3822 1 14.87831851375098 31.367500107414614 57.3263734096275 0 0 0
3823 1 15.088640769529611 29.697668905046353 59.58174534820257 0 0 0
3825 1 17.061844462919094 29.84508761531794 57.54274482685555 0 0 0
3828 1 16.791534573321183 31.99451776439271 59.811713130858266 0 0 0
3827 1 18.94622065801247 29.808953291695396 59.586148229868 0 0 0
3826 1 19.12772497762037 32.040833821968505 58.11607450536558 0 0 0
3794 1 18.97665880526441 27.540230353502565 57.70119091699785 0 0 0
4050 1 18.98191837882032 27.590281925887755 61.525283717481265 0 0 0
4081 1 16.67417028994729 29.68862339960635 61.696120287219706 0 0 0
3580 1 25.078965237882795 31.803922467235772 55.327690634439335 0 0 0
3575 1 23.043419338567016 29.34385440032267 55.33378580712388 0 0 0
3548 1 25.68743039328958 27.107975582636904 55.69053462166478 0 0 0
3544 1 20.957667944049735 27.695859429089595 55.89116691690597 0 0 0
3804 1 25.47405129872281 27.510495606275892 59.59460026006856 0 0 0
3800 1 21.2820835065828 27.521924110723017 59.752577164941606 0 0 0
3798 1 23.34629510923059 27.410818215504175 57.91124129875453 0 0 0
3829 1 21.370518638120295 29.729180372668317 57.815489231012606 0 0 0
3830 1 23.217278239444635 31.565858417793855 57.806007730288506 0 0 0
3831 1 23.18346639579491 29.362296173162424 59.88634350459091 0 0 0
3832 1 21.349055937946268 31.684431515149477 59.91233251457604 0 0 0
3833 1 25.239392563541852 29.86688188402789 57.46869379908013 0 0 0
3836 1 25.02714252329752 31.65957257217338 59.798469222192296 0 0 0
4085 1 20.947761329480056 29.140144774057493 61.80510782572639 0 0 0
4089 1 25.241048747679923 29.40241546534344 62.30022586911797 0 0 0
4054 1 22.96447373965257 27.314729212374967 61.94627104452685 0 0 0
3579 1 27.670993130092324 29.733866192243184 55.67610246188678 0 0 0
3584 1 29.34500737724642 31.47424051597498 56.26862971202115 0 0 0
3583 1 31.555865371149515 29.311545682720396 55.671957015088935 0 0 0
3552 1 29.234284541377477 27.513655962992722 55.40712926223003 0 0 0
3808 1 29.462926743610794 26.945972616887328 59.85594969654725 0 0 0
3806 1 31.50041521418871 27.251755540442815 57.47782741846227 0 0 0
3802 1 27.465070940310852 27.122759645008433 57.79888765135308 0 0 0
3834 1 27.080095780586316 31.54428470651235 57.90396909304125 0 0 0
3835 1 27.19888782778594 29.359705160881074 59.895485453669984 0 0 0
3837 1 29.821918523092993 29.131542270853245 57.895456199630004 0 0 0
3838 1 31.338233817042056 31.658536835308308 58.05986747722659 0 0 0
3839 1 31.537297527439748 28.987167245303016 60.18832926632479 0 0 0
3840 1 29.579611187876267 31.168127086302057 59.806827348201395 0 0 0
4090 1 27.298736561324983 31.42771771951799 61.96685258642103 0 0 0
4093 1 29.464517097248248 29.20666432947589 61.76670354025198 0 0 0
3873 1 0.6680859685822527 4.263031084995348 62.20320690024097 0 0 0
3845 1 4.407016385994105 -0.10186153870834849 61.83648497016967 0 0 0
3848 1 4.419556708936075 2.395233833868479 64.21608957288952 0 0 0
3875 1 2.7904120076541776 4.401779597224121 63.838029202484584 0 0 0
4098 1 2.66418327737166 2.373992249719365 66.12182045252861 0 0 0
4133 1 4.403501997895411 4.775901084542753 66.2556038310876 0 0 0
3844 1 0.1971380489632244 2.192189917604541 64.27222070003582 0 0 0
4129 1 0.5961617549193124 4.256687305000289 65.79855903912016 0 0 0
4097 1 0.3594511964496452 -0.07709787808542848 66.21443909951556 0 0 0
4101 1 4.645945762974938 0.1628446049853714 66.092082317516 0 0 0
3843 1 2.4675565210179724 0.3311460074846344 64.41792303535493 0 0 0
4099 1 2.274439813105184 0.1671249280213378 68.13518017511284 0 0 0
4100 1 0.35742871152855044 2.1327698016218273 68.39219452019502 0 0 0
4131 1 2.1651914432152255 4.604188105248687 68.08688594580005 0 0 0
4102 1 6.700198903273953 2.81760466782237 66.31993377492554 0 0 0
3879 1 6.763519508769333 4.573708860051774 64.22200658326217 0 0 0
3846 1 5.772857520824128 2.032223252357479 61.935765945757275 0 0 0
3881 1 8.290137401778047 4.505709577986235 61.83806551747313 0 0 0
3852 1 8.207583077563271 2.3596018973665935 63.69641351135399 0 0 0
3883 1 10.702113620274558 4.4998370226242095 63.80753515478951 0 0 0
4106 1 10.735655523544239 2.3000366632257703 65.92943688305331 0 0 0
4137 1 8.875822931320634 4.772698870498127 65.8041711844498 0 0 0
3851 1 10.405173978258851 0.20463512486303237 63.68594127452506 0 0 0
4141 1 12.756404809311894 4.218684167182747 65.89574676685743 0 0 0
4109 1 12.484699471490218 0.07063652445960955 65.93254976083692 0 0 0
3847 1 6.648680712455475 0.18994480541166905 64.47344298798905 0 0 0
4108 1 8.682743273363586 2.3110998532094356 67.75495381548764 0 0 0
3856 1 12.612855841869482 2.1554293553061905 63.70676026268265 0 0 0
4105 1 8.68577526894267 0.19352864739754844 65.94354164259403 0 0 0
4139 1 10.736834711233028 4.358679077165409 67.8562269232531 0 0 0
3888 1 12.91229498706742 6.018034472594061 63.68122144259541 0 0 0
4112 1 12.612789865233987 2.1097239977428677 68.17504574180796 0 0 0
4107 1 10.72151140383124 -0.005665921088216055 67.77633662833705 0 0 0
3854 1 14.653969697949732 2.097970264505407 61.89826473695836 0 0 0
3889 1 16.792502525221895 4.264534249704671 61.52880693535443 0 0 0
3860 1 16.910008492506503 2.328242414141929 64.03398820297986 0 0 0
3887 1 14.783303021720515 4.3334908118554285 63.7932396741555 0 0 0
4110 1 14.43877805611272 2.16708961584994 65.72234732627771 0 0 0
4145 1 16.815577683380784 4.112946226006526 65.97467832819761 0 0 0
3891 1 18.949007633800313 4.210781919515852 63.91365005371707 0 0 0
4114 1 18.74702570871521 2.1797849728987515 65.97613857466148 0 0 0
4113 1 16.814568481205704 -0.03408957751470772 65.7723280563272 0 0 0
3859 1 18.82140903660696 0.33189497847549965 63.839336635002695 0 0 0
3855 1 14.67494104329928 0.05189648983643195 63.853115637306814 0 0 0
3861 1 21.364557213955557 0.07401448911242832 61.77562913439777 0 0 0
3893 1 21.448187347503353 4.612787595982856 61.63561127926487 0 0 0
3897 1 25.04164037864933 4.64477218514365 62.28599728833212 0 0 0
3862 1 23.418071116904212 2.086029155264253 61.8953477582637 0 0 0
3864 1 21.063023685191162 2.018669422473278 63.79999983513779 0 0 0
3868 1 25.68628178478021 2.3007901667473782 63.486463814375774 0 0 0
3895 1 22.818510475129877 3.8602298392291496 63.91551415752868 0 0 0
4118 1 22.938485371353313 2.0964529394485134 65.85952795936407 0 0 0
4149 1 20.794025023728228 4.270924721228524 65.71647830312426 0 0 0
4153 1 24.895105415555616 4.051227504619346 65.73640787115178 0 0 0
4117 1 21.108164169459716 0.25044680164682953 65.97113388527082 0 0 0
3863 1 23.249294491876388 -0.0393147348986113 63.98857914116304 0 0 0
4121 1 25.032843103946156 0.15450980756567317 65.84632128232867 0 0 0
4119 1 22.949374704279 0.26299232511438714 68.03731934434825 0 0 0
4151 1 22.56160172503579 4.165054140667466 67.76107090328232 0 0 0
3866 1 28.037619192571015 2.2410746469782183 61.988061208883956 0 0 0
3870 1 31.32622928137538 2.2643042168151886 62.23267679835384 0 0 0
3901 1 29.569763650592694 4.647454499982318 62.0278167289272 0 0 0
3872 1 29.559234012553617 2.6091200983655614 64.26352795723645 0 0 0
3899 1 27.43935712755269 4.5544119706790696 64.12272822840876 0 0 0
3903 1 31.31012199160365 4.5002520437721 63.87039226107278 0 0 0
4122 1 27.50304451213908 2.34467578688848 66.07698158983824 0 0 0
4126 1 31.80951448610769 2.386134571729748 66.35150161238406 0 0 0
4157 1 29.68131865998696 4.497779625661642 66.24409767926798 0 0 0
3871 1 31.513357212788478 0.06739545300399641 64.02382579822142 0 0 0
4125 1 29.777351441092065 0.0637085200267756 66.40245949542702 0 0 0
3867 1 27.695330762189183 0.2517107384559068 64.4561019616056 0 0 0
3898 1 27.029800920369617 6.769668703738604 62.173532818027034 0 0 0
4160 1 29.366775393920047 6.521614864177788 68.00247204897319 0 0 0
4154 1 27.14536874664388 6.281839856748192 66.36862321630444 0 0 0
3904 1 29.288862747545725 6.631786925472701 63.83729509510597 0 0 0
4159 1 31.971062018310363 4.530652307587129 68.35469732467133 0 0 0
4130 1 2.556939205611144 6.589670234124807 65.71173033026463 0 0 0
3876 1 0.4867575782066968 6.600819714872159 63.91533304404067 0 0 0
3880 1 4.316131853536807 6.435769156003363 63.61523439746744 0 0 0
3907 1 2.4792812065682677 8.491085698633652 63.73865905836674 0 0 0
3912 1 4.283915533573978 11.092671083615967 64.17362524348111 0 0 0
4162 1 1.945988098062467 10.361400964328599 65.72788953998878 0 0 0
4165 1 4.387007651522577 8.70541207073075 65.98198917037756 0 0 0
4161 1 -0.20722537513555314 8.43632569450231 65.96540140301437 0 0 0
3939 1 2.1000918257261523 12.706884525299557 64.1281444137573 0 0 0
4197 1 4.782559831388132 13.121806361537534 65.63699433416564 0 0 0
3908 1 -0.08907855873143533 10.560910617652949 63.96413508820811 0 0 0
3911 1 6.258104429116707 8.662678285045878 63.788731391778946 0 0 0
4193 1 0.1829022626830151 12.943366783665487 66.20874419846857 0 0 0
4168 1 4.295102544386495 10.848999143462592 67.51617472322046 0 0 0
4136 1 4.571527750740499 6.57191710572676 68.32181784219377 0 0 0
4164 1 0.29269875473719187 10.718602512223372 67.84770778552375 0 0 0
3914 1 10.962795346254014 10.261226720787517 62.22746653077389 0 0 0
3949 1 12.580571660980299 12.681598978589427 61.214214637588455 0 0 0
3882 1 10.558218913306854 6.281507325630169 61.52667484368062 0 0 0
4144 1 12.617752042100856 6.175714611298242 67.977975808731 0 0 0
3910 1 6.843925304059205 10.745347115577312 61.93294100682235 0 0 0
3917 1 12.685098189727812 8.042704204596802 61.92326294614463 0 0 0
4134 1 6.423143436961248 6.439159267940854 66.04187904690573 0 0 0
3884 1 8.721184130869176 6.708659833418777 63.88291673962348 0 0 0
4166 1 6.556737922939817 10.980069554697554 65.84642212618505 0 0 0
3943 1 7.088509114606364 13.399850733701612 63.90625506776463 0 0 0
3913 1 8.806043111792157 8.612993392289892 61.72402380530471 0 0 0
4138 1 10.812209829486916 6.605317322021759 66.0355872636788 0 0 0
3915 1 10.848985879483216 8.552949592301315 64.23971311901299 0 0 0
3916 1 8.646874754707136 10.610563296095988 64.096692326867 0 0 0
4169 1 8.562169866684037 9.13952982482448 66.17554119172908 0 0 0
4170 1 10.930044555896599 11.111086568225996 65.7024850232793 0 0 0
3947 1 11.098274044771735 12.672631826334529 63.714860010346726 0 0 0
4173 1 12.85796013681624 8.690331600377753 65.7647543808258 0 0 0
4205 1 12.767181470905555 12.660916368302269 66.14709454370552 0 0 0
3920 1 13.467516918364451 10.642254597468044 63.7303931397435 0 0 0
4199 1 6.654317209937558 12.971073704028843 67.86739440705132 0 0 0
4167 1 6.496205982777068 8.945412856005134 68.33703253754402 0 0 0
3922 1 19.132434467912883 10.894465665306866 62.32597574535647 0 0 0
3890 1 19.03238449465351 6.179520329436135 61.807803921388214 0 0 0
4142 1 14.450356916770644 6.159391577196211 66.13245703080418 0 0 0
4146 1 18.702063094137582 6.290318602985642 65.9007539047882 0 0 0
3918 1 14.941515138029411 10.327168083382801 61.623860115731 0 0 0
3892 1 16.710081757049384 6.425654920741257 63.819999190943726 0 0 0
3953 1 16.681723989854873 12.683127783128295 61.62526054269668 0 0 0
3921 1 16.52520107511551 8.284018865573378 62.05930212331116 0 0 0
3919 1 14.609084813036388 8.330689227645342 64.03143381481098 0 0 0
3924 1 16.902885544632806 10.405073278869208 63.950597514279714 0 0 0
4174 1 14.776654433202651 10.539405734033725 66.00735963300477 0 0 0
4177 1 16.734110856631066 8.269528773434777 65.97551125639761 0 0 0
3923 1 18.96963585975072 8.515818476311944 64.00600194702356 0 0 0
4178 1 18.92754745751948 10.502367061554118 65.96986279627684 0 0 0
3955 1 19.12522891436524 13.12312475258466 64.11083711594058 0 0 0
4148 1 16.731574421180728 5.942428355908057 67.9624459064192 0 0 0
4211 1 18.79944116716685 12.494086058885285 68.17511992350757 0 0 0
4180 1 16.68074576258579 10.22194207009033 67.82692809644273 0 0 0
4175 1 14.844650405466245 7.980369949773212 68.07150546510233 0 0 0
3951 1 14.94221494960289 12.654280010644603 63.85510319535143 0 0 0
3900 1 25.149787902225484 6.41849586344869 64.37962305354432 0 0 0
4150 1 22.580477054459404 6.261326924130799 66.05960874821061 0 0 0
3894 1 23.214913233136684 6.864271588888966 61.94563440354935 0 0 0
3925 1 21.029883250417083 8.4630077451192 62.060768784351865 0 0 0
3926 1 22.886382245478572 10.569081910063957 62.5392544319646 0 0 0
3896 1 21.04325501067616 5.987788250783411 63.740628555402225 0 0 0
3961 1 25.220858836789333 12.700528949760752 61.91749128318963 0 0 0
3927 1 23.18425287082329 8.362978135296107 64.5911241559365 0 0 0
3928 1 20.756656405894727 10.582725708649816 64.18584146737625 0 0 0
3932 1 25.27676544349898 10.999346298088339 64.41497260040789 0 0 0
4181 1 20.57248065587919 8.298111118451478 66.1966007218199 0 0 0
4182 1 23.244721056863327 10.90779171338644 66.3270222984246 0 0 0
4185 1 25.626312622093444 8.791728903460161 66.27241672386724 0 0 0
4217 1 25.25719576427055 12.895886985084168 66.29244219253768 0 0 0
4213 1 20.74591051044611 12.728744857697626 66.32306856240996 0 0 0
4184 1 20.698163707691123 10.508657631735051 68.36925463356243 0 0 0
4188 1 25.32764950501656 10.797993880730195 68.49292054280482 0 0 0
4215 1 23.27586691847308 12.931952862601278 68.27305212888801 0 0 0
3957 1 21.30180301386134 12.852011859971391 62.42888609165872 0 0 0
3959 1 23.14279760068532 12.897958987209966 64.13384398696573 0 0 0
4152 1 20.857030298938778 6.367202095754664 68.3861909504071 0 0 0
4183 1 23.00416366259423 8.399880172430558 67.6974023427823 0 0 0
3933 1 29.0420480080231 8.476814594447822 61.753305436793966 0 0 0
4158 1 31.890249687779757 6.160788735030952 66.34223340870692 0 0 0
3931 1 27.578749050598972 8.476066896010716 64.19263097453943 0 0 0
3935 1 31.26616872554153 8.93312524605177 63.32538637953068 0 0 0
3936 1 29.251187378237237 10.855189309332346 64.36380194793824 0 0 0
4186 1 27.11453645865305 10.987680127791688 66.2166897949499 0 0 0
4189 1 29.821768684720194 8.526356208735429 66.13730563663664 0 0 0
4190 1 31.93335134599656 11.027937995077222 66.02776619898818 0 0 0
3963 1 27.47106267353384 12.937680388097132 63.99961433840623 0 0 0
4223 1 31.486712280913576 12.961236245330209 68.20291453075295 0 0 0
4221 1 29.350050389809574 12.932598121167754 66.51340145681122 0 0 0
3967 1 31.811288229044017 12.881058405210888 64.03926434287284 0 0 0
4191 1 31.778225010176428 8.60341601492108 68.02026035249727 0 0 0
3973 1 4.777121560161831 16.916080435470494 61.85957680461015 0 0 0
3938 1 2.636902204964096 14.613913261731854 61.98476320337285 0 0 0
3944 1 4.804897616503988 15.22217467725618 64.00305186204561 0 0 0
3971 1 2.566388660717602 16.762169749340387 64.11554994523695 0 0 0
3976 1 4.610688812703661 18.581127674322843 64.21613063950197 0 0 0
4194 1 2.281320559581254 14.832968318915988 65.9964713256037 0 0 0
4226 1 2.4072290668588483 19.254309855031156 66.12921757297069 0 0 0
4229 1 4.350631384168541 16.90794515663543 66.6662499124895 0 0 0
3972 1 0.06583230724972935 18.754222948444937 63.845134471352765 0 0 0
3940 1 0.18904415235675687 14.971967873602825 64.00757628832334 0 0 0
4225 1 0.2424630379971958 16.90661394205411 66.22675764446035 0 0 0
4227 1 2.3606968553486367 16.89897212667029 68.51597234267602 0 0 0
3974 1 6.960567588588634 19.04006665382704 62.1834735258834 0 0 0
3975 1 7.095347719424961 16.89644765447261 64.00068077156656 0 0 0
4232 1 4.4226619031389305 19.12467483496905 68.24266512943277 0 0 0
3945 1 9.424040000677117 12.839777797660501 61.3143686668307 0 0 0
3946 1 10.963013646212781 14.919564271953611 61.707167272906204 0 0 0
3981 1 12.86007949033183 16.67343381442846 62.08513662019455 0 0 0
4201 1 8.886239415822363 12.787556246147252 65.85787643403287 0 0 0
4198 1 6.479490659021001 15.332212576757941 66.0830133060242 0 0 0
4230 1 6.4531419950121185 18.783468219973837 65.99807877419033 0 0 0
3978 1 11.00565281658544 19.13574644948253 61.80987848868853 0 0 0
3942 1 6.892077072051325 14.917934692139994 61.655262338279876 0 0 0
3977 1 8.89739156645248 17.064025175578944 62.09373741645534 0 0 0
3948 1 9.300545083985872 15.004715669003717 63.95652586542551 0 0 0
3979 1 10.99750050237909 17.005507705294633 63.71598661736483 0 0 0
4202 1 10.67450922987333 14.533837093573924 66.20916703763557 0 0 0
4233 1 8.964911467548777 16.98376674752655 65.96629620870411 0 0 0
4234 1 10.734065065687608 18.967342728544423 66.25528137580575 0 0 0
3980 1 8.865391947666092 19.241273245943557 63.98310897436074 0 0 0
3984 1 12.895170587311336 18.92418168049358 63.586959751137364 0 0 0
4204 1 8.73066911907281 15.042977782611343 68.06932951203522 0 0 0
4237 1 12.524151851976423 16.90290621516977 66.0264415789133 0 0 0
3950 1 14.286716980600664 14.319119627178218 61.48714042467803 0 0 0
4209 1 16.858635978887808 12.372178238084244 66.05261895479093 0 0 0
3952 1 12.936923732677448 14.7598869475005 64.0537851351027 0 0 0
3954 1 18.941239610689138 15.117400732973186 61.78342189101138 0 0 0
3982 1 14.710809304917904 18.764304756641554 61.365678195435656 0 0 0
3956 1 16.80611170411569 14.73000178171281 63.84305695267983 0 0 0
3983 1 14.805770819498944 16.805076445726293 64.33270285014281 0 0 0
3988 1 16.515391002681984 18.554539188629256 63.55153335290121 0 0 0
4206 1 15.03894899418105 14.778816614929895 66.28706414841885 0 0 0
4238 1 14.811417836273488 19.02290827398283 65.7218393632134 0 0 0
4241 1 16.995788106953675 17.134464968639616 66.17421637380718 0 0 0
4242 1 18.826121947239713 19.33492288985264 65.69153359612272 0 0 0
3987 1 19.27622994819735 16.731097289577615 64.31259757552998 0 0 0
4210 1 18.78426685540475 14.749613404939408 66.08521753253746 0 0 0
4243 1 18.583245224218732 16.572480751635975 68.27126857331076 0 0 0
4212 1 17.05405274808192 14.479203323116185 68.30617616197355 0 0 0
3989 1 21.39532248291135 16.650868888343364 62.12237162758077 0 0 0
3958 1 23.213412705913786 14.930631805641081 62.573110280732045 0 0 0
3960 1 21.277926201170978 15.076494140882344 64.70386036479745 0 0 0
3964 1 25.666319509728424 14.988574197651394 63.79316592963057 0 0 0
3991 1 23.022431112201712 17.21641544955217 64.24089586693624 0 0 0
3992 1 20.742498868533406 19.16571316108717 63.9121005951941 0 0 0
3996 1 24.839849653998176 19.145562765973477 64.13635606340291 0 0 0
4214 1 23.586113693339197 14.95444530032555 66.09909796138827 0 0 0
4245 1 20.59337855902785 17.164515840776843 66.41440025125753 0 0 0
4249 1 25.284674805005942 17.123960233903603 66.33041329882191 0 0 0
4216 1 20.91112407628631 14.771968113499629 68.05996936013906 0 0 0
4248 1 20.949173318305537 19.25942830260718 67.90157790892516 0 0 0
4246 1 22.688938035274557 19.15736557361688 65.94525501286446 0 0 0
4247 1 23.311579531742083 17.089221439988375 68.0852409295653 0 0 0
3994 1 27.205690719654335 18.84999033103906 61.59421523131146 0 0 0
3966 1 31.492224153281974 14.69711702656542 61.94703818375607 0 0 0
3968 1 29.78082588024399 15.002695738361314 64.18331659358377 0 0 0
3995 1 27.41963474338242 17.027384134803647 64.28419929412252 0 0 0
3999 1 31.59215007024391 17.142734258126293 63.81050156142992 0 0 0
4000 1 29.482171421324605 19.169610931041053 63.97663260600522 0 0 0
4218 1 27.421011286916595 14.98876738509223 66.38813984679358 0 0 0
4222 1 31.650509334726294 14.935186061849748 66.30662634968746 0 0 0
4250 1 27.716449279677597 18.989727596212767 66.50982353262374 0 0 0
4253 1 29.356596818667267 16.833030759812136 66.40304242527627 0 0 0
4254 1 31.78108193407355 19.10045462275404 65.98610369027952 0 0 0
4251 1 27.120801659895218 17.279392261415268 68.64222557548698 0 0 0
4224 1 29.865724488844315 14.924857467637997 68.24501267527184 0 0 0
4196 1 0.2796187447224747 14.934378970993519 68.12746112317326 0 0 0
4219 1 27.48023291584015 12.616697558012921 68.33059601579373 0 0 0
4033 1 0.09874338027365105 24.86259008546007 62.148638178507895 0 0 0
4037 1 4.201491398742632 25.072689502812743 62.02521009742094 0 0 0
4005 1 4.606413415938398 20.624045435739376 62.048024868331765 0 0 0
4003 1 2.535155146450567 20.90513649113469 64.16728145756204 0 0 0
4008 1 4.348100435279198 22.87074304837981 63.81246142652185 0 0 0
4035 1 2.30106658040169 25.37224622554109 64.10339799490656 0 0 0
4258 1 2.5544718310051753 23.207274721157262 66.12599222627236 0 0 0
4261 1 4.61662840292529 21.070021637220528 66.23927226145818 0 0 0
4293 1 4.5697559909728565 24.852819137570876 65.84810399561623 0 0 0
4289 1 -0.053346741708115396 25.363633487361163 66.06276202014453 0 0 0
4257 1 0.3102884251569492 21.037864398041293 66.03590663379038 0 0 0
4004 1 0.26196577948294547 23.134064359848136 64.36048958782517 0 0 0
4259 1 2.0726510992066904 21.017094023596268 67.8927769090546 0 0 0
4007 1 6.409933422183882 21.135150510640965 64.08593744680456 0 0 0
4013 1 12.655114415823915 21.187880268281177 61.64492054343562 0 0 0
4009 1 8.712047211774172 21.18155416664454 62.06778396657706 0 0 0
4041 1 8.480609730845313 25.4049381605347 61.82741622779723 0 0 0
4039 1 6.555617928323802 25.308940624794182 64.29970912973104 0 0 0
4006 1 6.614243679953511 23.35192106934591 62.145093006198955 0 0 0
4010 1 10.487389328061909 23.26735360695541 61.62748379886824 0 0 0
4262 1 6.802300354085617 23.200802845802947 66.39085085633879 0 0 0
4011 1 10.881060172784407 21.42505411887527 63.84177050052072 0 0 0
4012 1 8.667885313306252 23.42686811798367 63.79184732708358 0 0 0
4043 1 10.955288069225173 25.32323977990046 63.44153023256467 0 0 0
4265 1 8.945533692362854 21.3206615855424 65.87852496001273 0 0 0
4266 1 11.259116305997354 23.206984185276077 65.80425630101864 0 0 0
4297 1 8.800935024062447 25.291095726356378 65.8285762429109 0 0 0
4269 1 13.064625992803137 20.76701702468251 65.74429493619363 0 0 0
4301 1 12.877439617981455 25.44513368220962 65.38177367066365 0 0 0
4016 1 12.840226302486759 23.085104882300836 63.771990470073476 0 0 0
4014 1 14.866472815614424 23.16877254727473 61.80388462920177 0 0 0
4045 1 12.756936870868323 25.013383878386865 61.25731193317939 0 0 0
4015 1 14.988985311705052 20.95107279551927 63.20688281583102 0 0 0
4020 1 17.125778874503002 23.057659415876444 63.31099256083739 0 0 0
4047 1 15.062005620138741 25.271825901648633 63.27542434367103 0 0 0
4270 1 14.828128150000618 23.277033223591435 65.73679515432092 0 0 0
4273 1 16.81540930922411 21.057700094848407 65.2436551686387 0 0 0
4305 1 16.554281277823556 25.42905162971038 65.576481150504 0 0 0
4274 1 19.040732225069107 23.336621924644756 66.52104114655322 0 0 0
4019 1 19.370529431511883 21.593679386428324 64.38991257470694 0 0 0
4051 1 18.850188419065812 25.2810205468823 63.91780418088769 0 0 0
4303 1 14.76005292463716 25.361454800035666 67.84070812802918 0 0 0
4053 1 21.246018840897122 25.260992559651356 61.29784182857907 0 0 0
4022 1 23.156729599681178 23.28737833165319 61.896020444932404 0 0 0
4025 1 24.862850015557058 20.964593084135316 61.75434200041284 0 0 0
4023 1 22.609897915641046 21.16415626458865 63.71188809027427 0 0 0
4024 1 20.896815204840692 23.634078453318267 63.47855297729544 0 0 0
4028 1 25.395937343572708 22.71435041688703 64.07381304146685 0 0 0
4055 1 22.87778264530348 25.28908618513292 63.89257549087783 0 0 0
4277 1 21.48598543786462 21.450504431744697 66.0895651009232 0 0 0
4278 1 23.254427027633838 23.274647073950323 66.1581950004811 0 0 0
4281 1 25.399297000457214 20.86405665121073 66.17956677016083 0 0 0
4309 1 20.902737725213875 25.474239377274948 65.59424093693585 0 0 0
4313 1 25.47969791958244 24.987458896752138 66.08490621093767 0 0 0
4280 1 20.988192269721363 23.22694648800776 68.21679060212746 0 0 0
4279 1 23.25534498912886 20.95593344067293 68.12075792556276 0 0 0
4061 1 29.27778341782461 24.695378771895854 62.05705562600846 0 0 0
4059 1 27.173398147094208 25.071633569048903 64.1229877470418 0 0 0
4027 1 27.244814369235005 20.07096751359594 64.15437262742587 0 0 0
4031 1 31.539517096029883 21.26666703163062 64.01912816652158 0 0 0
4032 1 28.984955453555774 22.966831324556445 64.0708152964655 0 0 0
4063 1 31.726755623939464 25.090728768155394 64.00276207286215 0 0 0
4282 1 27.57486131296371 22.68762397071589 66.20396694391255 0 0 0
4285 1 29.606312610504048 20.78494109619017 66.31772272678295 0 0 0
4286 1 31.21026819524519 23.19129366856652 66.13630308955048 0 0 0
4317 1 29.030555371579407 25.020142791547705 66.15873012073735 0 0 0
4288 1 29.667486366748072 22.95787528043787 68.32453100249032 0 0 0
4319 1 31.51960516567433 24.804727389752706 68.15202886556894 0 0 0
4315 1 27.08487238595398 24.844983787310824 68.22124440645607 0 0 0
4066 1 2.2932794161478376 31.303479703062827 61.604060043459775 0 0 0
4069 1 4.4248740722088975 29.196788622271086 62.069689993889334 0 0 0
4034 1 1.8968784906320324 27.32907755489775 62.2473231598426 0 0 0
4065 1 0.12770335894777682 29.41613041107796 62.10333964742593 0 0 0
4290 1 2.3367029833249364 27.451069597243734 66.01415592522766 0 0 0
4040 1 4.203343032102308 27.319162031021264 64.26035701972037 0 0 0
4036 1 -0.08419831397804224 27.14702422345458 64.05452993780607 0 0 0
4067 1 2.1999982470095776 29.55619921423852 64.26805504318871 0 0 0
4072 1 4.221024806425593 31.527743369968633 63.78662327849851 0 0 0
4322 1 2.3768613395721014 31.579407815205474 66.2017066410365 0 0 0
4325 1 4.584622612788476 29.61842890685353 65.9702336308913 0 0 0
4068 1 0.3363689247180335 31.312075430449728 64.10044496723198 0 0 0
4321 1 0.22053286428890748 29.499306191899095 66.11499723069781 0 0 0
4070 1 6.36743720774002 30.98754600544707 61.84473166401246 0 0 0
4324 1 0.4724575314982314 31.271028327141725 68.20319406274697 0 0 0
4038 1 6.2338525431692595 26.93247303632671 61.73521147138432 0 0 0
4077 1 13.0455442245964 29.61583571591374 61.79804622066716 0 0 0
4073 1 8.26040743152011 29.27531265538679 61.70957311521849 0 0 0
4294 1 6.426750732396753 27.12987182105563 66.16951173003972 0 0 0
4071 1 6.6194119496650705 29.281256146382237 63.890765064833104 0 0 0
4326 1 6.479634666133236 31.4862622696024 65.77627428195407 0 0 0
4298 1 10.760964150340959 27.331596667620055 65.65452089874677 0 0 0
4044 1 8.564382231600698 27.135942399237408 63.85332202494417 0 0 0
4075 1 10.585869264791894 29.16283367816553 63.38645962278443 0 0 0
4076 1 8.515822206343232 31.3817978089954 63.44756507560923 0 0 0
4329 1 8.58461768945093 29.355835920481198 65.6472170024627 0 0 0
4330 1 10.610473939722525 31.226264463708393 65.61875950006204 0 0 0
4048 1 12.87442790663198 27.230468720724613 63.67031920274167 0 0 0
4080 1 12.115119696115237 31.610542723373285 63.285718135224 0 0 0
4333 1 12.504138515278692 29.497440608920325 65.32343865135493 0 0 0
4336 1 12.91649269528727 31.447331670918913 67.80253000388728 0 0 0
4332 1 8.889895596489863 31.233364455654403 67.81827587533621 0 0 0
4082 1 19.05064750506144 31.7965798437602 61.783916844383604 0 0 0
4078 1 14.448365969316079 31.983630111060297 61.72489095709462 0 0 0
4046 1 14.815440626141392 27.571753400979826 61.91380333907258 0 0 0
4052 1 16.905549244988865 27.55284193584651 63.491807538369365 0 0 0
4302 1 14.651333108784723 27.9776087532367 65.96496673341879 0 0 0
4079 1 15.008180297727913 29.49965327273944 63.55448963922089 0 0 0
4084 1 17.0262936476079 31.410316346537947 63.75015485796425 0 0 0
4334 1 15.17060410999263 31.196127734074366 65.73057579795382 0 0 0
4337 1 17.332360093024953 29.506173892099152 66.27896615063766 0 0 0
4306 1 18.978662119309227 27.191111558262666 65.96378493640789 0 0 0
4083 1 18.96402125079487 29.32059514224121 63.861808941929915 0 0 0
4338 1 19.18528404874917 31.561550307971885 66.1147738980057 0 0 0
4340 1 16.971832745143264 31.590385856805725 67.77427791381199 0 0 0
4086 1 23.019775571001503 31.373234675589938 61.961180986464896 0 0 0
4056 1 20.685104096428727 26.99706588334755 63.51842235880743 0 0 0
4310 1 23.09747474958183 27.089898253745407 65.96143033618442 0 0 0
4060 1 24.860783224680254 27.086319581125995 63.85882315224908 0 0 0
4087 1 23.089693401167867 29.39881552227982 63.9198294724676 0 0 0
4088 1 21.052324219413336 31.452439212364464 63.780917432669874 0 0 0
4092 1 25.284601338400762 31.25834799211637 64.21017235299708 0 0 0
4341 1 20.98917939689801 29.115225257423738 65.66944562295703 0 0 0
4342 1 23.351979937802405 31.100656543164092 66.22615144071845 0 0 0
4345 1 25.30821070317047 29.010269585543142 65.81193945691487 0 0 0
4316 1 25.003322250095042 27.197815603315394 68.01698187690975 0 0 0
4094 1 31.43281021045702 31.12565621909281 62.121376335168755 0 0 0
4058 1 27.2907962681758 27.379951003050245 62.15548497837205 0 0 0
4062 1 31.255920656348994 26.974335253541422 62.10069796690352 0 0 0
4064 1 29.359732884640916 26.53863033465078 64.03395597492302 0 0 0
4314 1 27.180218982878557 27.122606174034548 65.719091863686 0 0 0
4318 1 31.29529653269011 27.217469947005295 66.2354331071525 0 0 0
4091 1 27.828789086299007 29.37877388408095 64.24430136120647 0 0 0
4095 1 31.177998825602042 29.11220668318609 64.0437540012614 0 0 0
4096 1 29.449142542300926 31.656753611213347 64.17383394757725 0 0 0
4346 1 27.499697141656128 31.56803988199759 65.87147022387201 0 0 0
4349 1 29.335617229987893 29.66536875523988 66.39774726586039 0 0 0
4350 1 31.865691785272794 31.34288970120292 65.95993386482971 0 0 0
4320 1 29.64580931319931 27.426699659854396 68.07059140244759 0 0 0
4351 1 31.841426582625576 29.646941448224656 68.3356933034141 0 0 0
4347 1 27.248695374569685 28.896225246716874 68.09094188423703 0 0 0
4104 1 4.807010034573347 2.2420257248507225 68.07422201323989 0 0 0
4354 1 2.559405507728604 2.383768756690646 69.67281473135598 0 0 0
4360 1 4.940360154882517 2.2961250300207796 72.086156004801 0 0 0
4387 1 2.4455650611653215 4.463014268539546 72.16479363214727 0 0 0
4389 1 4.526670477711604 4.26958245593891 70.24557877344044 0 0 0
4385 1 0.4035787255834542 4.346812943356108 70.23974161096372 0 0 0
4356 1 0.322043799522296 2.4632448316402664 71.84592893120951 0 0 0
4353 1 0.4361945706096124 0.19399786365498572 70.07876364065675 0 0 0
4357 1 4.571842332446816 0.28195345724369864 69.93469311678892 0 0 0
4388 1 0.2729816965601269 6.6447005272511275 72.27819308580068 0 0 0
4355 1 2.7072538650990796 0.5195210971567245 72.2781271508949 0 0 0
4641 1 0.33418148714727947 4.556741735459694 74.25335583354352 0 0 0
4132 1 0.5241740086588532 6.653563838169125 68.06065116346515 0 0 0
4613 1 4.772453547161887 0.45238690542934396 74.21069617206291 0 0 0
4103 1 6.74534757547434 0.22342965888312713 67.68872409789552 0 0 0
4135 1 6.623683558261939 4.370054003782598 68.74359684189126 0 0 0
4358 1 6.841938886528402 2.2967115931066338 69.97114865091254 0 0 0
4391 1 6.737880237819639 4.111478811309887 72.15089585283967 0 0 0
4614 1 7.034096042481022 2.430848471285434 74.47603757380287 0 0 0
4359 1 6.718698506316533 0.237154358379443 71.91487721806942 0 0 0
4362 1 10.826299809426224 2.600336670755518 70.24364907275846 0 0 0
4364 1 8.65990210428143 2.254369805334637 72.08926033470443 0 0 0
4393 1 8.805219664584154 4.456620985643495 69.90988259372581 0 0 0
4395 1 10.726320004745032 4.526276229519512 72.2408711167619 0 0 0
4368 1 12.562422472714632 2.1132132494529876 72.59819029960056 0 0 0
4397 1 12.845259010794994 4.1682050634854795 70.18408200409836 0 0 0
4363 1 10.570354995788064 0.13657294999530953 72.02909514231084 0 0 0
4365 1 12.615085055927079 0.24852600629667881 70.2993095953413 0 0 0
4649 1 8.68784225170795 4.45046051290048 74.49224113017222 0 0 0
4361 1 8.80680631471053 0.3247680172461389 69.90377407376795 0 0 0
4618 1 10.71775150208344 2.5561602717149707 74.4875765309097 0 0 0
4617 1 8.783452665723997 0.3270877713238025 74.08783646679342 0 0 0
4143 1 14.725966229253421 4.10282857421124 67.81296357010734 0 0 0
4116 1 16.63955453511187 2.0106969577323786 68.13604089526895 0 0 0
4147 1 18.896561351537805 4.175123423250898 67.97639445845257 0 0 0
4653 1 12.617704587467195 4.457552106671376 74.19126320316744 0 0 0
4111 1 14.712702793794701 0.3157600528815906 68.01746106726267 0 0 0
4115 1 18.9449169424783 0.1873561684248231 67.7553204927447 0 0 0
4366 1 14.779624354036992 1.9860533838812156 70.21345766929346 0 0 0
4372 1 16.611018419703015 2.1091933805817393 72.11242793142668 0 0 0
4399 1 14.703636251480946 4.140770714440114 72.1367096094855 0 0 0
4401 1 17.014261485536572 4.146130983726724 70.02636529766554 0 0 0
4403 1 18.909151110670965 4.032383450210031 72.42708364291927 0 0 0
4370 1 19.148424407175828 1.9538106380341327 70.2369249905763 0 0 0
4369 1 17.08027334426476 -0.16958955996559247 70.55266953881734 0 0 0
4371 1 19.11181536247538 0.2620695460274012 72.27359062309999 0 0 0
4367 1 14.699404808183738 -0.11645595580483561 72.14794664257792 0 0 0
4657 1 16.755767816591796 4.423910119698486 74.27417627576905 0 0 0
4404 1 16.891085549928405 6.696043703897104 72.40017274555262 0 0 0
4626 1 19.244966369356604 2.3431082210050342 74.24020426573203 0 0 0
4124 1 25.24147355688397 2.6221771111437713 67.87121294129413 0 0 0
4120 1 20.73195435875636 2.1077579731562555 68.19230999221891 0 0 0
4374 1 23.109721521421708 2.538210548794868 70.02057817066363 0 0 0
4376 1 21.302124844452717 2.208812389744572 72.18804747442591 0 0 0
4380 1 25.361062947625303 2.1405354899955737 72.16224636737765 0 0 0
4405 1 21.091136012590837 4.339150645121733 70.42137453416868 0 0 0
4407 1 23.122272488570243 4.662244468783102 72.40842244613316 0 0 0
4409 1 24.99444362403977 4.606234177629153 70.11223966682043 0 0 0
4377 1 25.124609516815756 0.3751253746595083 70.24522472935455 0 0 0
4375 1 23.209102995174387 0.032775182638162086 71.934074790166 0 0 0
4373 1 21.066408319738354 -0.19186863342211985 70.05077418270142 0 0 0
4408 1 20.98111191454637 6.233579879481628 72.40437480759621 0 0 0
4123 1 27.316374947206928 0.5360067438560607 67.86033690398763 0 0 0
4155 1 27.54741274063324 4.476545920580627 68.22757189882611 0 0 0
4128 1 29.700566303560574 2.4872171348147165 68.2444289377028 0 0 0
4127 1 31.804973553710507 0.47979044571356655 68.03994848603843 0 0 0
4378 1 27.266567026896624 2.0464047652896653 69.91430358390349 0 0 0
4382 1 31.009793067049806 2.282078097399739 70.57928384784225 0 0 0
4384 1 29.039016641283467 2.6302070324615348 72.36074479373563 0 0 0
4411 1 27.05744387856453 4.360563581210087 72.20875528585562 0 0 0
4413 1 29.673899613192393 4.653040456937392 70.26295443719512 0 0 0
4415 1 31.647570351599143 4.571887424416591 72.34182335968282 0 0 0
4381 1 29.851349865321318 0.08599248434813608 70.04750780412358 0 0 0
4379 1 27.141269230711725 0.16391211834084046 72.325108248499 0 0 0
4383 1 31.61722427494918 0.3088092285351634 72.33967190771457 0 0 0
4634 1 27.33527684270037 2.1614325517072657 74.54711122267568 0 0 0
4637 1 29.409571105060895 0.7406307715375305 74.67951379199907 0 0 0
4386 1 2.46391681718159 6.488545184987696 70.14341955202055 0 0 0
4163 1 2.3075893378105192 8.498829991530519 67.83036062083801 0 0 0
4392 1 4.805095583143207 6.846899211854223 72.28795679738423 0 0 0
4418 1 2.320058860617179 11.113125210754617 70.22614367469208 0 0 0
4419 1 2.3987763043283485 8.60850338964708 71.93221303923747 0 0 0
4421 1 4.0323858005100055 9.03714603879358 69.74201379072348 0 0 0
4424 1 4.477519150084836 10.58947324866632 72.19279001277754 0 0 0
4420 1 0.38577211114427 10.69859451763966 72.27055880560538 0 0 0
4417 1 0.6352809780441234 8.68726915486578 69.94080519394575 0 0 0
4453 1 4.511737525732874 12.783436035258312 70.66498726316661 0 0 0
4449 1 -0.027869627641519686 12.825717466624148 70.22097161873849 0 0 0
4422 1 6.740303274724283 11.196449850491613 69.83346680541024 0 0 0
4423 1 6.739423548888416 8.713454457190387 71.92862918431274 0 0 0
4451 1 2.6939657182053995 12.660471266561721 72.5186560078032 0 0 0
4642 1 2.635724635845673 6.099293066424128 74.15132380489115 0 0 0
4673 1 0.28423761798922215 8.484620209855166 74.6214055981719 0 0 0
4705 1 0.17357544054194415 12.557166507754761 74.55351526221224 0 0 0
4674 1 2.4819548836849195 10.491738563200242 74.29566987560366 0 0 0
4678 1 6.642049188328477 10.697719653978437 74.37943950740873 0 0 0
4203 1 11.023623548177229 12.683053057536972 68.50938953118882 0 0 0
4176 1 12.871050258007271 10.440824354142372 68.17249154641948 0 0 0
4171 1 10.952785299848028 8.723733645500898 68.10975663822555 0 0 0
4172 1 9.010646961313727 10.886124854107603 68.17014682818846 0 0 0
4396 1 8.579699837023316 6.360113190889205 72.05687737429126 0 0 0
4650 1 10.65623010251048 6.575463509770107 74.38263126665814 0 0 0
4646 1 6.512046508081904 6.434208943529176 73.91226324462555 0 0 0
4140 1 8.709477179169633 6.565067779785398 67.93420904492294 0 0 0
4390 1 6.658545417283608 6.503710375515695 70.21015269454108 0 0 0
4400 1 12.6464737827488 6.831635284173004 72.08542781775319 0 0 0
4394 1 10.633063350850733 6.941846800204294 70.20128005249549 0 0 0
4425 1 8.422282704596874 8.62949423437745 70.08679131294645 0 0 0
4426 1 10.661145750072999 10.600890400076093 70.46821379425253 0 0 0
4427 1 10.536135713416561 8.769825148784422 72.24631530477905 0 0 0
4428 1 8.83947025486972 10.824727786976114 72.3677441028704 0 0 0
4455 1 6.621627206516544 12.240382918262405 72.53458791185685 0 0 0
4461 1 12.999618838398396 12.897354220313632 70.44494842837086 0 0 0
4432 1 12.729677656770953 10.489983005007407 72.18086781334601 0 0 0
4457 1 8.64789600704233 13.047730954782642 70.2842016743216 0 0 0
4682 1 10.354455477072511 10.558939243893898 74.48758308699762 0 0 0
4713 1 8.581353823597135 12.647955192766128 74.23346834154354 0 0 0
4179 1 18.77336994362606 8.261851776438593 68.19655416274173 0 0 0
4207 1 14.842259198677876 12.298736627125447 68.11805240133329 0 0 0
4429 1 12.93304414540731 8.27734376927717 70.01456138928232 0 0 0
4717 1 12.590009277531083 12.370966121270213 74.2091213394864 0 0 0
4398 1 14.738697789101144 6.104849945275093 70.25532198545518 0 0 0
4402 1 18.86944494370697 6.075314816894615 70.31887757330344 0 0 0
4430 1 15.032148393412877 10.360106914469812 70.06113814914283 0 0 0
4431 1 15.096251070250405 8.530821341344954 72.07390314007417 0 0 0
4433 1 16.794758421569494 8.082152349432533 70.09002786225822 0 0 0
4436 1 16.938677073965675 10.623596756828846 72.61471142885732 0 0 0
4435 1 19.307262430327384 8.806225032614469 72.47811359731374 0 0 0
4434 1 18.46977649558461 10.5213077667689 70.11901537384433 0 0 0
4463 1 14.696361151881893 12.562890663674887 72.60648540059749 0 0 0
4465 1 16.60859393397232 12.583781466272276 70.21885119481335 0 0 0
4686 1 14.665452000209983 10.375162542147399 73.97889633084326 0 0 0
4467 1 19.139831314912367 12.556299801163252 72.3332667639159 0 0 0
4721 1 16.693389292232496 12.44576753080737 74.40414757403771 0 0 0
4689 1 17.042175900625427 8.513318785898505 74.45092689607648 0 0 0
4690 1 19.11752296865968 10.571382668032944 74.64828204796989 0 0 0
4412 1 25.239938463481217 6.392054349031623 72.34453651483103 0 0 0
4156 1 24.811286436150436 5.9735866821247185 67.9462579738853 0 0 0
4406 1 22.995127305075258 6.892660042888698 70.2077088051623 0 0 0
4437 1 20.873678153862613 8.513835912240188 70.44706085392804 0 0 0
4438 1 23.12833876065426 10.151524722495745 70.17690094255111 0 0 0
4439 1 23.767121892249143 8.913082140174705 72.40470377109045 0 0 0
4440 1 21.31101101288531 10.57889872788519 72.53825478815702 0 0 0
4444 1 25.680451290932186 10.897842417419513 72.23199495839394 0 0 0
4441 1 25.356161034276962 8.155946867349716 70.01013954395717 0 0 0
4469 1 20.998154485555176 12.332567615396234 70.15006685546157 0 0 0
4473 1 25.443250709164243 13.03160377951554 70.21602356830486 0 0 0
4694 1 23.548415042405068 10.765017480345653 74.53017140907777 0 0 0
4471 1 23.380926862796382 12.287874918465867 72.17898866890799 0 0 0
4729 1 25.407221510207293 12.671382640996471 74.13903262301805 0 0 0
4192 1 29.19264165730533 10.393269588623692 67.90100918351965 0 0 0
4410 1 27.583735054157774 6.489062539752347 70.31484643534225 0 0 0
4416 1 29.539572168549952 6.671786394919896 72.40534650846661 0 0 0
4187 1 27.306653531913692 8.541676864854212 68.02300057059306 0 0 0
4414 1 31.622235172766768 6.943658357568251 70.49853792717145 0 0 0
4442 1 27.41805882340825 10.144765024076838 70.02633157468716 0 0 0
4443 1 27.209404508668616 8.59050252053242 72.25590181260488 0 0 0
4445 1 29.79791015415118 8.607250305666767 70.16557260645932 0 0 0
4446 1 31.654401684233378 10.665343137485195 69.64166035902008 0 0 0
4447 1 31.4323603529839 9.217809371172379 72.43446087252208 0 0 0
4448 1 29.17850562186773 10.402449137859177 72.39067406734598 0 0 0
4479 1 31.406171921472335 12.318494052935932 72.40106142778053 0 0 0
4702 1 31.75667655679311 10.728153610461653 74.80556308857267 0 0 0
4666 1 27.32009857325895 6.598026384844461 74.32150425691435 0 0 0
4701 1 29.786834118451594 8.676865660820964 74.68335286628175 0 0 0
4698 1 27.425279995639407 10.37561270749862 74.51252304869989 0 0 0
4228 1 0.09973410686658246 18.727047068911553 68.42890198150859 0 0 0
4231 1 6.836659580234548 17.023432563102904 68.2098526507908 0 0 0
4195 1 2.2665550716988565 12.675113199378496 68.1524121659172 0 0 0
4200 1 4.446022731027587 14.576025605271951 68.18521739204407 0 0 0
4450 1 2.6288338361045467 14.687073838455236 70.14563206200191 0 0 0
4456 1 5.0675735768249766 14.864706880712532 72.39705458300725 0 0 0
4482 1 2.0228730491540854 18.822257955802876 70.19877098582879 0 0 0
4483 1 2.692515700404849 16.628356262817565 72.9083723772521 0 0 0
4485 1 4.489278200252246 16.939484438947904 70.253340015238 0 0 0
4481 1 0.40649870622710865 16.514172627435205 70.50651461546819 0 0 0
4452 1 0.6878369871581597 14.623580586718884 72.59266759147549 0 0 0
4488 1 4.173850239758546 19.28816255783057 72.18866865167425 0 0 0
4484 1 0.23341604736036975 19.182364160195448 72.4705195036299 0 0 0
4706 1 2.6051520171515756 14.686573683312076 74.64384876552886 0 0 0
4737 1 0.3808567201874279 16.80643608585302 74.62943050621715 0 0 0
4486 1 6.356564858911249 19.108851524449893 70.20651688962715 0 0 0
4454 1 6.528118849106177 14.900920230883255 70.32411800388947 0 0 0
4742 1 6.134953149979439 19.011064103102587 74.3308877573763 0 0 0
4709 1 4.677913001438844 12.742294558262893 74.61714713677094 0 0 0
4738 1 2.442776395972331 19.086324336020077 74.10263608186949 0 0 0
4741 1 4.754664592899661 16.73422789337301 74.65014808394328 0 0 0
4240 1 12.838717739861591 19.06385018778354 67.99976166051157 0 0 0
4208 1 13.10459285309461 14.555569877250981 68.06051015469885 0 0 0
4459 1 10.879831353502952 12.956478715474384 72.2839937847981 0 0 0
4235 1 11.008046963472221 16.66246663171167 67.87534425076554 0 0 0
4487 1 6.860542073353454 17.038648582346415 72.17871548904837 0 0 0
4236 1 8.616659855560982 19.664509389041324 68.2791729424081 0 0 0
4458 1 10.909693831070786 14.885921573131942 70.03976670701603 0 0 0
4460 1 8.118421675948747 14.756492720461381 72.23511252109292 0 0 0
4489 1 9.10339161863229 17.248740776952566 69.9896576194803 0 0 0
4491 1 10.20846520495258 16.909921135065414 72.11018400158414 0 0 0
4492 1 8.682262264819945 18.964982580995905 72.24821779389403 0 0 0
4490 1 10.649202700780043 19.270235304902027 69.75799102517271 0 0 0
4496 1 12.471836769492054 18.970250779082544 71.96201893619565 0 0 0
4464 1 12.628892072551249 15.246563150278648 72.17878906032176 0 0 0
4714 1 10.704525816540386 15.199138874997482 74.13944411578062 0 0 0
4746 1 10.319367374143784 18.87449835749211 74.33774130335942 0 0 0
4749 1 12.51813011347197 17.276641528315427 74.72098160905169 0 0 0
4239 1 14.862107283598597 17.06213358822131 68.19133516440716 0 0 0
4244 1 16.91049598115449 19.021373867334308 67.98631091046602 0 0 0
4493 1 12.787504528025917 16.92448432740006 70.00521365850473 0 0 0
4462 1 14.676681272176157 14.789362122465342 70.40036722752168 0 0 0
4468 1 16.739620293376557 14.16199143673364 72.27391369480812 0 0 0
4494 1 14.774121670792438 19.25113838140147 70.1353928973183 0 0 0
4495 1 14.578936172371938 17.25280259833019 72.2294028878558 0 0 0
4497 1 16.768520319269772 16.810662403444454 70.50147951297086 0 0 0
4500 1 16.736846089616588 19.12467024267013 72.38712075197247 0 0 0
4499 1 18.882293110949586 17.017749055735834 72.15321936256079 0 0 0
4498 1 18.863094444788164 18.833400492058765 69.92825070524118 0 0 0
4466 1 18.876156570630766 14.579826697137642 70.45621538331773 0 0 0
4753 1 16.804625315318415 17.061752835629147 74.1309955921748 0 0 0
4750 1 14.830312956130923 18.995847828706975 74.52207168860791 0 0 0
4718 1 14.720714407720036 14.824604085956294 74.16476129977575 0 0 0
4252 1 25.185529294694287 19.122266392316746 68.39827159768912 0 0 0
4220 1 25.42330031855949 15.27000867674999 68.58093120384736 0 0 0
4470 1 23.0185026277505 14.462492127053302 70.46304721054481 0 0 0
4472 1 20.734883512387793 15.225065073465563 72.12844996477659 0 0 0
4476 1 25.547815649957244 14.747913499191105 72.13586779570703 0 0 0
4501 1 21.073785275921086 16.899057901341337 70.13438717018111 0 0 0
4502 1 22.9499818216159 19.078928571671636 70.16402374827956 0 0 0
4503 1 23.343957107324748 16.632277473048607 72.36012557608544 0 0 0
4504 1 21.05535455689532 18.76679834416597 72.48579017305104 0 0 0
4505 1 25.340957996410392 16.893889429593585 70.53492122038993 0 0 0
4508 1 25.091240023883156 19.05759652304735 72.19939867674807 0 0 0
4757 1 21.109006018929794 16.716203550212775 74.48604902334979 0 0 0
4726 1 22.83523966404417 14.450854709676086 74.08342701914525 0 0 0
4256 1 29.628881052591126 18.688465483667027 68.60890286347637 0 0 0
4255 1 31.48506534763759 17.0485514207849 68.37423829581931 0 0 0
4475 1 27.558851751668783 12.554448370333036 72.14516631558722 0 0 0
4477 1 29.297028980606036 12.558306938262628 70.03597434148229 0 0 0
4507 1 27.403820473703476 16.860270344544478 72.1719442012191 0 0 0
4474 1 27.57422755202155 14.810509509019974 69.91166734898957 0 0 0
4478 1 31.4869004822737 14.522568874617498 70.49383224151099 0 0 0
4480 1 29.71214117267857 14.804754325464836 72.47853547153447 0 0 0
4509 1 29.48894401232895 16.789632567454827 70.43829503490703 0 0 0
4510 1 31.566200951372156 18.67979601348829 70.54839276904276 0 0 0
4511 1 31.8172459056091 16.657401273667226 72.40689534502262 0 0 0
4512 1 29.650952852490438 18.85153872610215 71.98760344724413 0 0 0
4506 1 27.395857666987542 19.272321902948878 70.65267676566758 0 0 0
4766 1 31.435618017973432 18.604382732192928 74.71523664096367 0 0 0
4733 1 29.505473939495435 12.560739420719933 74.39573051062199 0 0 0
4765 1 29.446930335911752 16.94337273385347 74.38044702681076 0 0 0
4730 1 27.361388523221372 14.492950679540332 74.32212493291244 0 0 0
4734 1 31.729441721384706 14.876659527646314 74.51671625542626 0 0 0
4291 1 2.2472106237001928 25.121390269612853 67.85706647676615 0 0 0
4264 1 4.185935337383897 23.249896498870655 67.97944449724933 0 0 0
4260 1 0.20961522992865594 23.092285995109282 67.85112393227375 0 0 0
4515 1 2.1400053591400674 21.356048148825124 72.16051428223471 0 0 0
4514 1 1.896621420152689 23.36573799420742 69.6792448728596 0 0 0
4517 1 3.965471066200803 21.17013439715265 70.12953780269369 0 0 0
4520 1 4.6290688162901015 23.370517977231366 72.60068328286607 0 0 0
4547 1 2.1696804783197687 25.203064603073834 72.33669089405404 0 0 0
4549 1 4.152747629076457 25.02516533670561 70.29896480320019 0 0 0
4545 1 -0.13569905156967693 25.0730453496545 70.31746329734115 0 0 0
4513 1 -0.04857618844272187 21.133368857162946 70.1581977403928 0 0 0
4516 1 -0.18193038111447174 22.904867187838438 72.61061128799503 0 0 0
4263 1 6.357995215956344 21.098222082689993 68.05786343173625 0 0 0
4518 1 6.371803871532789 23.075681455826103 69.95990253663487 0 0 0
4773 1 4.206009598816609 21.085057036642493 74.24051095185072 0 0 0
4770 1 2.1010153637000877 23.45866285251224 74.46907569126051 0 0 0
4805 1 4.26290869093146 25.548656102715473 74.76101432064173 0 0 0
4801 1 -0.06851428075879873 25.494008187449523 74.44036594998428 0 0 0
4769 1 0.2959558318359227 20.952826762208254 74.42398065933548 0 0 0
4268 1 8.921044334377092 23.2128154745384 68.15379288625759 0 0 0
4267 1 10.953971118113587 21.52319742738701 67.69455217841764 0 0 0
4519 1 6.347760944424389 20.975575244192594 72.33576375069369 0 0 0
4295 1 6.415214709087883 25.03176724486547 68.28041233118473 0 0 0
4299 1 10.7172128939771 25.25741745187874 67.90414510294718 0 0 0
4272 1 13.148579367024864 23.25216154638031 68.0234486856505 0 0 0
4551 1 6.884253461326502 25.073240467187286 72.18893214049054 0 0 0
4521 1 8.575894838687846 21.131386262364025 70.43904476347825 0 0 0
4522 1 10.744021954714446 23.484626143733372 70.39686904768206 0 0 0
4523 1 10.746324476473298 21.32074510382081 72.27207765879167 0 0 0
4524 1 8.820935591706988 23.20651251119472 72.29299680081776 0 0 0
4553 1 8.515052879102917 25.658095694920696 70.05273902703158 0 0 0
4555 1 10.744727743851376 24.778763092346765 72.83943105056963 0 0 0
4528 1 12.903632953229973 22.89507894113313 72.20777493528175 0 0 0
4525 1 12.454030845744269 20.992224154660196 70.03404600048451 0 0 0
4557 1 12.885510233464196 24.89357785153148 70.09202575391296 0 0 0
4777 1 8.432268886566165 20.97567849794865 74.24209098694482 0 0 0
4307 1 19.65101898529149 25.527451819275104 68.1561792441123 0 0 0
4276 1 16.803857538499585 23.438816217853883 67.64831245722516 0 0 0
4275 1 19.00251088007214 20.878671622889055 68.00188354982137 0 0 0
4271 1 14.847060157814193 21.301552417164036 67.71843364668051 0 0 0
4529 1 16.73038531053182 21.15814005944056 69.60317480627613 0 0 0
4526 1 14.448156861096779 22.94458836091422 70.33194952788716 0 0 0
4527 1 14.610947370456838 20.73374427612125 72.1447912198403 0 0 0
4532 1 17.02698365673489 23.281999031831038 71.80740085639451 0 0 0
4559 1 15.154360199875846 25.51881767065184 72.40382004947053 0 0 0
4561 1 16.78233670903355 25.47594884953452 69.86446897995285 0 0 0
4563 1 18.900742276400713 25.39120544418063 71.80646684042063 0 0 0
4530 1 18.805270291736942 23.00750959781945 69.87441979542443 0 0 0
4531 1 18.84903705117436 21.283645404033127 72.24390566167797 0 0 0
4785 1 16.492927913481942 21.042236772147497 74.38937272391817 0 0 0
4786 1 19.07005442070151 22.887666178082245 74.10766600413474 0 0 0
4284 1 25.262211832598815 23.06141561361618 68.11301048642306 0 0 0
4311 1 23.17876783254049 25.41492627884332 67.95254604768829 0 0 0
4533 1 20.84229879313783 20.846374267177772 70.0610982179347 0 0 0
4534 1 23.288748591954914 22.996558008173746 69.78320106046098 0 0 0
4535 1 23.132719903886308 21.14410276583147 71.98979917638164 0 0 0
4536 1 20.86767677892299 22.862810826214293 72.06824133094781 0 0 0
4537 1 25.290568432159414 21.23594736605667 70.36496791199508 0 0 0
4540 1 25.458920268714213 23.19338701138965 72.16879009024386 0 0 0
4565 1 21.13545477219026 25.06270407713323 70.10628382188054 0 0 0
4567 1 23.00216134348919 25.356351324903866 72.08214881855226 0 0 0
4569 1 25.147843962096612 25.268906846196604 70.30058387413716 0 0 0
4790 1 22.959207042033555 23.268656037534114 73.88644486211193 0 0 0
4287 1 31.7624888464664 21.019673454007087 67.8735836242657 0 0 0
4283 1 27.489923570126862 21.29743085235527 68.50355593735559 0 0 0
4538 1 27.794854071979547 23.413758089070473 70.19679411273462 0 0 0
4539 1 27.379514514243734 21.2286790894734 72.78968650447273 0 0 0
4541 1 29.65888900532294 20.879579624164535 70.22927896715991 0 0 0
4542 1 31.41179341780108 22.838073125393723 70.40840238596996 0 0 0
4543 1 31.34818959176584 20.831915724305553 72.6583811894003 0 0 0
4544 1 29.596756663317148 23.211210751773674 72.42452794988489 0 0 0
4571 1 27.568801281086895 25.55334797209694 72.24709096637154 0 0 0
4573 1 30.04367468193793 25.243626102210875 70.29849944608237 0 0 0
4575 1 31.714590648259136 25.103092077157427 72.4224440325992 0 0 0
4829 1 29.58796032002925 25.36058774260111 74.3123585621838 0 0 0
4798 1 31.559502646938036 22.977764617511024 74.4965659530251 0 0 0
4794 1 27.36299943648746 23.464959410740104 74.40510194245819 0 0 0
4292 1 0.29709274765744825 27.08631281265679 68.54944186008161 0 0 0
4296 1 4.47624612898275 27.000095963802053 67.74656809761699 0 0 0
4328 1 4.454773984842396 31.469220034087858 67.8577623854519 0 0 0
4323 1 2.614017886546075 29.24665966825722 67.89096635690206 0 0 0
4546 1 2.5210742233862944 27.065180461674586 70.08941062580722 0 0 0
4552 1 4.393768915358011 26.855137907445812 72.19433483976646 0 0 0
4548 1 0.35832766927844106 27.405167611825497 71.87489064898229 0 0 0
4578 1 2.3445547443440047 31.52898439888043 70.11152519053256 0 0 0
4579 1 2.5841728954457537 28.79274222100143 72.0946662790472 0 0 0
4581 1 4.737043922891754 29.597939098551254 69.69142226491748 0 0 0
4584 1 4.619289001328141 31.454552402289146 71.99051116919473 0 0 0
4580 1 0.5677063643218132 31.698026538439738 72.05104595089576 0 0 0
4577 1 0.7241283912597986 29.42982220397337 70.36260862361655 0 0 0
4802 1 1.9721859826472283 27.724932968840918 74.38436539033319 0 0 0
4834 1 2.3992028598578163 31.265125305340693 74.07350872011081 0 0 0
4833 1 0.015366938391464446 29.58232594017496 74.16393246047089 0 0 0
4837 1 4.433571223770425 29.090544532734565 74.25918335021892 0 0 0
4300 1 8.60018081652988 27.102042010087505 67.84971864057088 0 0 0
4327 1 6.798052498238068 29.317475067467726 67.75856015325998 0 0 0
4331 1 11.17977182669687 29.2687537819687 67.87773041077571 0 0 0
4582 1 6.9591461658049285 31.21516050067351 70.05845559723821 0 0 0
4583 1 6.440511700887085 29.182689021086272 72.18179115689132 0 0 0
4304 1 12.921759510673061 27.08468003993206 67.97793512233599 0 0 0
4550 1 6.53276982446862 27.508289377498766 69.96484833227562 0 0 0
4554 1 11.166149100427033 26.774413707236903 70.34380532108251 0 0 0
4556 1 8.668963574641264 27.333539411828777 71.92579489277212 0 0 0
4585 1 8.872074898939657 29.17913896838087 69.72017992757917 0 0 0
4586 1 10.947468086829431 31.286547005160397 70.06922623852836 0 0 0
4587 1 10.892244321496111 28.686931264677007 72.0346473641714 0 0 0
4588 1 8.888640024972482 31.256968135160637 72.01496175818187 0 0 0
4592 1 12.757600293998538 31.464635153006093 72.31636374443055 0 0 0
4589 1 13.085022994468957 29.386972298497778 69.81241771149698 0 0 0
4560 1 12.822066175200975 27.339108381938594 72.4787682580918 0 0 0
4841 1 8.6554916176697 29.03216801643445 74.0254489851826 0 0 0
4845 1 12.912764638610192 29.499753409381256 73.8226652809245 0 0 0
4810 1 10.701619254347952 27.162613373341063 74.59755698789583 0 0 0
4806 1 6.7494773791489004 27.26416377237939 74.09102651796226 0 0 0
4842 1 10.60115083166396 31.32958982583851 74.236518751298 0 0 0
4308 1 17.130703976827657 27.288802801126003 67.98402033931035 0 0 0
4335 1 15.182466606288305 29.554284280797084 68.21410079714994 0 0 0
4339 1 19.117795273448348 29.08965676441007 68.19641240989186 0 0 0
4564 1 17.23751739150028 27.78123047115492 72.27686573720848 0 0 0
4558 1 15.063847271258787 27.47791545889925 69.93990531039425 0 0 0
4590 1 14.640862716979369 31.818279817256776 69.87845143165896 0 0 0
4591 1 14.823353054898169 29.391922412555537 72.15004928014615 0 0 0
4593 1 16.846091489524284 29.783564410244296 70.27678155800795 0 0 0
4596 1 16.762406367124893 31.56858223446997 72.29147572889055 0 0 0
4594 1 19.1979720603972 31.049758199817585 69.95574601877617 0 0 0
4595 1 19.299356775970143 29.356352168818916 72.15593481310613 0 0 0
4562 1 19.115996375270203 27.397644228283614 70.09483107144088 0 0 0
4850 1 19.299961208430574 31.58600011402741 74.04012271518731 0 0 0
4849 1 16.91627423894614 29.83564361809409 74.1153972723203 0 0 0
4312 1 21.553217557499746 27.531601022325553 67.96022512394033 0 0 0
4344 1 21.27120811020437 31.305628844389393 67.86901853041059 0 0 0
4348 1 25.629270369102983 31.572230735936586 67.99700299462995 0 0 0
4343 1 23.649980076499357 29.66511752981224 68.4559972476272 0 0 0
4572 1 25.88806769382463 27.541808813497163 72.06965175893876 0 0 0
4568 1 21.04305074821804 27.220841020875806 71.84216454119247 0 0 0
4566 1 23.414432967240725 27.377641138802456 70.35670888646094 0 0 0
4597 1 21.356282243191213 29.450073336412327 69.99488754150276 0 0 0
4598 1 23.457401912400623 31.255744404207267 70.2973652191597 0 0 0
4599 1 23.277896185861223 29.474205162953645 72.19406158790196 0 0 0
4600 1 21.34082612240825 31.62899204055605 71.98511397814154 0 0 0
4601 1 26.040859695224174 29.306244156121377 70.35712117946714 0 0 0
4604 1 25.57436196659233 31.472253182917306 72.5796057185375 0 0 0
4853 1 21.427148745952582 29.53374968981777 74.38192775318353 0 0 0
4822 1 22.986492901956392 27.169746117205893 74.04920484596255 0 0 0
4857 1 25.148970285653142 29.219194034394057 74.37990874247967 0 0 0
4352 1 28.864958239371738 31.1542072088773 68.1148219450268 0 0 0
4576 1 29.460430734125183 27.797709326303718 72.66579793919449 0 0 0
4574 1 31.108089204222594 27.58405517138141 69.97148222615263 0 0 0
4570 1 27.563853611095986 27.04279382884469 69.81051890964262 0 0 0
4602 1 27.403522903286476 31.914832301716007 70.16578370431989 0 0 0
4603 1 27.41923790681155 29.68345071034603 72.7903660313646 0 0 0
4605 1 29.076117589449755 29.67847237647741 70.45660941829304 0 0 0
4606 1 31.252090674070814 31.513917379327733 69.91220018882984 0 0 0
4607 1 31.321862028638222 29.55365317502277 71.67626845445467 0 0 0
4608 1 29.282029905398318 31.745974047777718 72.38424845930206 0 0 0
4861 1 29.843601996478263 29.80148931212615 74.6421825607 0 0 0
4830 1 31.93906645877598 27.579359685113005 74.2647433137501 0 0 0
4826 1 27.59034372119635 27.484693281057933 74.58196299310806 0 0 0
4862 1 31.59900048077518 31.860739783440682 74.49241287437574 0 0 0
4645 1 4.525861384878098 4.241298672495608 74.00788034799615 0 0 0
4610 1 2.1372348689873735 2.425502377941778 74.09720862767398 0 0 0
4609 1 0.8836853678349798 0.26470339093212736 74.21906053485421 0 0 0
4616 1 4.164432691519421 2.530053348302664 76.05744614609158 0 0 0
4643 1 2.6301129706996202 4.694526220784036 76.31261574961412 0 0 0
4866 1 2.425242754477482 2.515451720736805 78.22019940056379 0 0 0
4901 1 4.424901446248619 4.69315145879301 78.40856694326767 0 0 0
4897 1 0.41201114661670163 4.829854368513116 78.25555718308347 0 0 0
4865 1 0.6119228165905878 0.27103271330119727 78.50531915897704 0 0 0
4869 1 4.185356603013715 -0.05141941333115567 78.11039425980515 0 0 0
4612 1 0.6127909008564377 2.746615162105389 76.39920522280836 0 0 0
4872 1 4.526357859399614 2.654568068391015 79.91977958510486 0 0 0
4644 1 0.004484155069031418 6.632507707664771 76.37392222534008 0 0 0
4611 1 2.416037174878551 0.41101443255532494 76.06692903238337 0 0 0
4899 1 2.613667160722123 4.679471169069992 80.4821462284002 0 0 0
4867 1 2.5945677109362717 0.41773497344478083 80.24375027974176 0 0 0
4621 1 12.27772584568127 0.10968421091995278 74.09640014941581 0 0 0
4647 1 6.750011874371238 4.556927559451618 76.25991485344223 0 0 0
4870 1 6.357776784053926 2.1483320244351476 78.03926224202522 0 0 0
4615 1 6.148389260037336 0.5152944915112342 76.12952166958048 0 0 0
4871 1 6.4834407007463914 0.09370111984259553 80.02300540751432 0 0 0
4620 1 8.655215053408662 2.206939198030008 76.40344726177669 0 0 0
4651 1 10.962659422499675 4.541013732901074 76.88514174801345 0 0 0
4874 1 11.05762419970619 2.6501271489626093 78.6552585140062 0 0 0
4905 1 8.606972940045145 4.568726723410266 78.32388002278967 0 0 0
4909 1 13.342886127831685 4.449529938098101 78.65850086633465 0 0 0
4877 1 12.804120458632534 0.010147967918684124 78.43219284008589 0 0 0
4873 1 9.030809160996833 0.4231651220109461 78.29016362328416 0 0 0
4619 1 10.340962395653579 0.33494028563347794 76.13529115902406 0 0 0
4880 1 13.196307131922959 2.5943511044115475 80.73243813169265 0 0 0
4876 1 8.993273021175561 2.417871832098355 80.094934096422 0 0 0
4907 1 10.847493114319201 4.525840714079194 80.81110478179774 0 0 0
4622 1 14.730232660497705 2.1639808110251693 74.14908505293404 0 0 0
4625 1 17.170645321457275 0.2642232933915008 74.21046858330016 0 0 0
4624 1 12.815522965135715 2.729279235610907 76.52064595257498 0 0 0
4628 1 17.457724419606656 2.330476865902616 76.09265464389384 0 0 0
4655 1 15.430162025406911 4.230948113567103 76.26204455224263 0 0 0
4878 1 15.145533201415605 1.9661356329701771 77.80031997844331 0 0 0
4913 1 16.99806859956484 4.528968263479087 78.5019338594489 0 0 0
4623 1 15.144136736044139 0.17419166008662657 76.21442849963577 0 0 0
4882 1 18.959849909784783 2.422936317019 78.69081938866283 0 0 0
4627 1 19.15876342652979 0.22560495296153876 76.25575802519212 0 0 0
4659 1 19.13554186248669 4.435391577917856 76.67289282738793 0 0 0
4881 1 17.005548188098757 0.14056877650802224 78.44965302368277 0 0 0
4911 1 14.99196814956941 4.768423410116503 81.07693635690875 0 0 0
4661 1 20.781143839139478 4.4142861845452535 74.07635339593654 0 0 0
4630 1 22.944344318441342 2.5780201504194413 74.54005675421355 0 0 0
4633 1 24.8574459343238 0.2070792603243343 74.26529095239155 0 0 0
4665 1 25.091619631717457 4.25099129322697 74.40173470361785 0 0 0
4632 1 21.17628537316576 2.43028161054505 76.56666184852787 0 0 0
4636 1 25.59959370432685 2.2532308827572964 76.31561679193791 0 0 0
4663 1 22.943836241920586 4.592710248932402 76.22425663696063 0 0 0
4886 1 23.35238355715358 2.5805231676609663 78.68717052878434 0 0 0
4917 1 21.097475238480364 4.356949033460127 78.62169290426002 0 0 0
4921 1 25.22389444230914 4.425587869568629 78.59582725457393 0 0 0
4885 1 20.852528229459832 0.4663906345965381 78.49312981902033 0 0 0
4889 1 25.387913499926068 0.47822135772831703 78.78575606153571 0 0 0
4631 1 23.42918675812527 0.9489101405092863 76.69150602903301 0 0 0
4888 1 20.989539185348473 2.5263928169675585 80.95631356176918 0 0 0
4629 1 21.282923344680675 0.24691648470905353 74.18797008105075 0 0 0
4918 1 23.18202236683152 6.639924886141933 78.21888506899391 0 0 0
4669 1 29.32988811116501 4.562010748455395 74.17657153483458 0 0 0
4638 1 31.427219380115567 2.3448048569769386 73.95805062890955 0 0 0
4640 1 29.710611545331233 2.4984980331130284 76.35613208338341 0 0 0
4667 1 27.578981694074987 4.388613785018038 76.41201724000908 0 0 0
4671 1 31.649891729667686 4.449948916368162 76.43750221605072 0 0 0
4890 1 27.113636960265197 2.494954884456231 78.46312695749062 0 0 0
4894 1 31.899451779137543 2.372457831060498 78.26321142973224 0 0 0
4925 1 29.782352144799994 4.912695001484085 78.56880744055022 0 0 0
4635 1 27.1301614213332 0.2702075466851938 76.79299715029553 0 0 0
4893 1 29.46430613910482 0.7906191762404726 78.18604435453476 0 0 0
4639 1 31.863365509164183 0.851864761329633 76.08563178922154 0 0 0
4895 1 31.706420944343034 0.3646363015660716 80.45132802269485 0 0 0
4927 1 31.85849866201669 4.194269838173856 80.70983688564085 0 0 0
4677 1 4.488992742538348 8.728307979484088 74.5324920492792 0 0 0
4898 1 2.4816716288824776 6.664976236760793 78.57424037148883 0 0 0
4648 1 4.563979492730137 6.547490520977666 76.08687994227373 0 0 0
4675 1 2.5659646160593734 8.33718906009057 76.90996193815663 0 0 0
4680 1 4.2159367370364285 10.543107142272849 76.39893820364136 0 0 0
4930 1 2.254817549804499 10.84609701101348 78.54992820985379 0 0 0
4933 1 4.6603250792575075 8.574149701558262 78.62346818292774 0 0 0
4676 1 0.7315970283505623 10.61970571063908 76.27309171259316 0 0 0
4929 1 0.5250566692668747 8.950041421620591 78.47565330739656 0 0 0
4707 1 2.2294363851481 12.73042581319478 76.31477703441558 0 0 0
4936 1 4.246698271808178 10.808855747338809 80.91367267805633 0 0 0
4961 1 0.5004516768525579 12.985842223113416 78.62475615023585 0 0 0
4963 1 2.8014376606500595 12.981512931642898 80.58373443078337 0 0 0
4681 1 8.57773778154677 8.514308642447725 74.1351377847457 0 0 0
4685 1 12.869376908735248 8.314982269891564 74.18514667646299 0 0 0
4652 1 8.923028820930778 6.494597847261354 76.44300758342283 0 0 0
4902 1 6.549851323388963 6.79042685783345 78.27259726905845 0 0 0
4935 1 6.956318701201248 8.673651115558858 80.51589750605238 0 0 0
4906 1 10.833613021286874 6.535018884354159 78.38742120850921 0 0 0
4656 1 13.056490750314383 6.784776311023194 76.82787779525303 0 0 0
4679 1 6.677858005885433 8.65676524128062 76.31159514024672 0 0 0
4934 1 6.508502089679281 10.576815509318173 78.59751887036654 0 0 0
4683 1 10.557859173442342 8.70026404697362 76.56925878416662 0 0 0
4684 1 8.776224711954061 10.786168827263014 76.79347201613565 0 0 0
4937 1 8.6284815823869 8.487412110100996 78.28521640356108 0 0 0
4938 1 10.97703594623322 11.14136266309372 78.49103639676173 0 0 0
4688 1 12.56927929969429 10.55973279023282 76.29865098792786 0 0 0
4941 1 13.104058562633854 8.9392827754856 78.27767299027273 0 0 0
4973 1 12.747662967620112 13.080020997867038 78.76380727277653 0 0 0
4908 1 8.649001734418956 6.71896598597174 80.34869393870906 0 0 0
4967 1 6.009231122413199 12.72266987879351 81.25298490124405 0 0 0
4940 1 8.70037131355314 11.143052456621252 80.48688017595082 0 0 0
4654 1 14.848993691505278 6.519792392075076 74.40235546453964 0 0 0
4658 1 18.870614784898507 6.2411626583943525 74.11325180558896 0 0 0
4910 1 15.174939141674294 6.6126488284631355 78.92514667212161 0 0 0
4660 1 17.001478590426952 6.257331310015843 76.22294619636966 0 0 0
4914 1 18.855026382957607 6.468612644134729 78.67133317970995 0 0 0
4916 1 17.212154249764424 6.755112869987498 80.94053699998902 0 0 0
4687 1 14.992092026085558 8.72578869852661 76.28520653819906 0 0 0
4692 1 16.918690481031817 10.842885390799642 76.36250540685494 0 0 0
4942 1 14.7214270682121 10.891557342511817 78.57078197395913 0 0 0
4945 1 16.81958181307286 8.885476766525198 78.23038989751431 0 0 0
4691 1 19.209984942606933 8.629619673732162 76.74197521973142 0 0 0
4946 1 19.414204279480142 11.149827542170764 78.4427806658934 0 0 0
4723 1 19.004994642984503 13.121329584710683 76.21725530144808 0 0 0
4977 1 16.769207501946706 12.766128210612251 78.36927468610821 0 0 0
4719 1 14.63079961422539 12.678104103736576 76.52573302615214 0 0 0
4948 1 17.038293077920983 10.589058437158894 80.27764827011046 0 0 0
4947 1 18.76954997982343 8.820045474967966 80.43285486413481 0 0 0
4943 1 14.993073826697401 8.91806437945392 80.4277414619165 0 0 0
4975 1 15.331328346115107 12.757872852375407 80.16902944088102 0 0 0
4697 1 25.264705066251352 8.763015962961214 74.40128493813947 0 0 0
4725 1 20.899789405920856 12.847287769620912 74.21030349075328 0 0 0
4693 1 21.187397264774027 8.559138846165848 74.13714876750296 0 0 0
4662 1 23.137390684619067 6.6646467132129645 74.09711827585275 0 0 0
4668 1 25.396303532211313 6.393061952618208 76.36959682161752 0 0 0
4664 1 20.508763620687397 6.379439398870152 76.28754929330825 0 0 0
4695 1 22.664587474183406 8.585000799837042 76.16485793966419 0 0 0
4696 1 21.23032515697874 10.891874451037001 76.39491619838935 0 0 0
4700 1 25.757625512209444 10.659769836424367 76.65514439698845 0 0 0
4949 1 21.33800098163351 8.726144059846712 78.39744565466098 0 0 0
4950 1 23.368250894078603 10.663175958586603 78.31950093010109 0 0 0
4953 1 25.24498064175135 8.475130878758394 78.4142182733519 0 0 0
4981 1 21.521021553308625 12.769676597459622 78.6629875179931 0 0 0
4727 1 23.477175948286096 12.726487970579651 76.35817978091504 0 0 0
4985 1 25.519592663563817 12.77022988411634 78.60089959761768 0 0 0
4956 1 25.3842476599651 10.47285670699657 80.90370517054555 0 0 0
4924 1 25.183367093825613 6.641819935684609 80.7668316766868 0 0 0
4983 1 23.331360199012877 12.698252135042061 80.49099087140286 0 0 0
4952 1 21.104686305293747 10.90632350406235 80.7105051610918 0 0 0
4951 1 23.08792851415093 8.360950016756352 80.27341800141083 0 0 0
4926 1 31.72581004172723 6.476495170002807 78.47170083505989 0 0 0
4670 1 31.686379399944137 6.401448523409099 74.5098789402639 0 0 0
4922 1 27.322497285630064 6.335657046830823 78.65665568244161 0 0 0
4928 1 29.52669577498137 6.456379351294954 80.44759160448275 0 0 0
4672 1 29.23664820811633 6.670499990169747 76.55887118415669 0 0 0
4699 1 27.157919566401663 8.367973660093984 76.78877407714648 0 0 0
4703 1 31.72294888980983 8.700569004151708 76.84660563537041 0 0 0
4704 1 29.55380210140491 10.398341274636659 76.73873480263957 0 0 0
4954 1 27.396377098659002 10.770320927746189 78.79595518462473 0 0 0
4957 1 29.11300671378318 8.432999112415404 78.82321716090169 0 0 0
4958 1 32.172586326674406 11.15801900219246 78.16903081039838 0 0 0
4735 1 31.548776591205517 13.151778232352793 76.37798822629009 0 0 0
4959 1 31.820264059455162 8.57847783814084 80.40128347082138 0 0 0
4960 1 29.77760852742101 10.729611244555096 80.3957202369855 0 0 0
4955 1 27.446571626153187 8.49062637474016 80.65400576158385 0 0 0
4991 1 31.60274162151971 12.690161240295874 80.6281686955553 0 0 0
4965 1 4.892687893590499 12.755563936513031 78.7296911688841 0 0 0
4711 1 6.795186408018347 12.535759672339356 76.6421287900815 0 0 0
4712 1 4.547485302227983 14.693952816990457 76.77441804883212 0 0 0
4739 1 2.416954748195324 17.19580223673181 76.34026332375085 0 0 0
4744 1 4.578236269739494 19.33922867484157 76.82610592765741 0 0 0
4962 1 2.2371139363006 14.897333305540823 79.06728412385273 0 0 0
4997 1 4.563216423733834 17.106417645372893 78.30434955411062 0 0 0
4993 1 0.2135714497129347 17.227143437433252 78.56744087686377 0 0 0
4740 1 0.11888223276549502 19.0835971278414 76.52405170490015 0 0 0
4994 1 2.4765827338060857 19.374568356373914 78.53922938718473 0 0 0
4708 1 0.14242393824677377 15.043469741148073 76.4949921515006 0 0 0
4743 1 6.785087208571925 17.044688961761214 76.67175185013575 0 0 0
4998 1 6.823929486382789 18.82464500011714 78.69591804735884 0 0 0
4966 1 6.340689748819519 15.136182776423372 78.61154669880199 0 0 0
5000 1 4.6379417939412075 19.641378723780026 80.45828777700636 0 0 0
4745 1 8.240394900670633 16.953887200176364 74.38123949152913 0 0 0
4969 1 8.406049997251573 13.16934878386203 78.5049761957808 0 0 0
4715 1 10.918581316446888 12.742324308923301 76.27560786359855 0 0 0
4971 1 10.780512317406158 12.933467972419718 80.83768187429449 0 0 0
4710 1 6.836613982424053 14.71218658099796 74.63390803866554 0 0 0
4716 1 8.748668831260495 14.782959125452336 76.56175067450238 0 0 0
4747 1 10.209956620800922 16.829674484245295 76.287565486268 0 0 0
4748 1 8.406996722948142 19.021061728711498 76.4022844405511 0 0 0
4970 1 10.861267505757992 14.738224337360725 78.43711049679202 0 0 0
5001 1 8.769190411186818 16.72223166140308 78.40810244155477 0 0 0
5002 1 10.604996343815957 18.86085038266758 78.81611606950182 0 0 0
5005 1 12.933792220039445 16.511235852922727 78.33418968021918 0 0 0
4752 1 12.334385546906205 19.063253342196262 76.62694477408525 0 0 0
4720 1 12.775876157141257 14.764479903817168 75.94329114512026 0 0 0
5008 1 12.961509922564579 19.178235695660423 80.14123443613225 0 0 0
4722 1 18.721860440927987 14.938358567356412 74.23990680244614 0 0 0
4754 1 19.06445553640189 19.094817576999148 74.44600701600285 0 0 0
4979 1 18.746012384526438 13.1723677601533 80.4120259481911 0 0 0
4724 1 17.033746734897914 14.6188132738462 76.49126845342992 0 0 0
4751 1 14.916076329133457 16.82496400654975 76.35434395559382 0 0 0
4756 1 17.25137076023736 18.78168098235481 76.68892755043308 0 0 0
4974 1 14.876080848352714 14.810371405646727 78.19210617449437 0 0 0
5006 1 15.075173039861225 19.404387780730218 77.93711043518184 0 0 0
5009 1 17.048579737432217 16.847198063092662 78.54138373439265 0 0 0
4755 1 18.96442703567911 16.822245274899505 76.42227535113314 0 0 0
5010 1 19.224919653762097 19.562067228557964 78.40866615556376 0 0 0
4978 1 19.034145539769845 14.877312652542695 78.4859545010813 0 0 0
5012 1 17.260235964672827 18.841109040870666 80.34190862553982 0 0 0
4980 1 16.692218474708955 15.058715385316628 80.40288876705728 0 0 0
4761 1 25.253084404757395 16.62665791711116 74.19791389253444 0 0 0
4758 1 23.172608982086313 19.103501346052163 74.38798126331307 0 0 0
4728 1 20.776987900838442 14.768295309854997 76.29142066865602 0 0 0
4732 1 24.99189566767304 14.97694662152042 76.4580555479574 0 0 0
4759 1 23.257323763693762 16.87514774410725 75.97335166356629 0 0 0
4760 1 21.302556633513777 18.759357937816137 76.51306660228988 0 0 0
4764 1 25.205386923438457 19.14710962974386 76.29315960179653 0 0 0
4982 1 23.36752529228559 14.881620236038128 78.54955302962598 0 0 0
5013 1 20.96403246970785 16.84645472847299 78.35130353198792 0 0 0
5017 1 25.736892737815165 16.75302242432993 78.41484222051717 0 0 0
5014 1 23.227580775164572 18.80609118374398 78.52799329679573 0 0 0
5016 1 21.06876918827304 18.608786873312607 80.49980783692924 0 0 0
5015 1 23.465858544023007 16.811709319259343 80.36357075412363 0 0 0
4988 1 25.272847961646246 14.584494039948812 80.44871037198338 0 0 0
5020 1 25.303175721018256 18.867255703133857 80.3067327743494 0 0 0
4989 1 29.221159731683954 12.77569036960768 78.40246737407577 0 0 0
4731 1 27.34545318034986 12.637413308129323 76.38887957602155 0 0 0
4762 1 27.173071319624047 18.957547303721803 74.25212228453556 0 0 0
4736 1 29.42388102239372 14.720442049876114 75.98617823522069 0 0 0
4763 1 27.44208724850704 16.98795881689569 76.32536672573444 0 0 0
4767 1 31.20266083691374 16.736694910773664 76.75160588572743 0 0 0
4768 1 29.461930492882708 19.09794961315145 76.88920697312007 0 0 0
4986 1 27.604842447101184 14.881030327945425 78.3862261779876 0 0 0
4990 1 31.384088711389506 14.735192073295252 78.47628670196431 0 0 0
5018 1 27.348694400964867 19.167365296160398 78.33406215916652 0 0 0
5021 1 29.051997190843196 16.92128732928042 78.77468325956497 0 0 0
5022 1 31.628717328376304 19.06430593322052 78.73977149800959 0 0 0
5019 1 27.696037932687705 16.858848849432714 80.85630299151995 0 0 0
5024 1 29.291092887150906 19.242244627580416 80.80244809503101 0 0 0
4987 1 27.5975478585305 13.126429595959989 80.76328592629213 0 0 0
5023 1 31.477179913648595 17.07323829733062 80.48005751843056 0 0 0
4771 1 2.5691388630081877 21.107530762082202 76.3995248640591 0 0 0
4776 1 4.4491942060849965 23.19358189724535 76.02328357397793 0 0 0
4803 1 1.9099972233101548 25.335476301716554 76.64746659587183 0 0 0
5026 1 2.423330448869728 23.108983389856323 78.28651875459818 0 0 0
5029 1 5.054919284708387 21.52546742066946 78.44790975717207 0 0 0
5061 1 4.680422676418878 25.525949023286127 78.15164640391076 0 0 0
5025 1 0.35380751755398404 21.218281614427482 78.4640363299567 0 0 0
4772 1 0.2668727249912931 23.08580048749166 76.19023606588016 0 0 0
5057 1 0.09573603096038816 25.378897792025285 78.54962800542944 0 0 0
5059 1 2.1453937627288213 25.392712200777662 80.22291725888617 0 0 0
5028 1 0.2630287061849757 23.0037885631801 80.58372572373793 0 0 0
4775 1 6.39763760898899 21.23151762414097 76.06592520571319 0 0 0
5030 1 6.6325031812156094 23.182411984890194 78.52248155766621 0 0 0
4807 1 6.323378508548423 25.431141059231123 76.17511823521178 0 0 0
4774 1 6.980029231877804 23.460136734537297 74.32675359065837 0 0 0
4781 1 12.619639358688266 20.729517829906555 74.23028828677809 0 0 0
4778 1 10.697636020796418 22.55606507002234 74.77580496281868 0 0 0
4813 1 13.173698174309301 25.170211009900363 73.94367505217365 0 0 0
5063 1 6.622626572634871 25.29535349893081 80.56113200871522 0 0 0
4809 1 8.636179915212853 25.416544311359374 74.11805401358535 0 0 0
4779 1 10.414868453286632 20.66930147177725 76.62591108725708 0 0 0
4780 1 8.511329787926519 23.239529368143653 76.56788254776244 0 0 0
4811 1 10.715892344805587 25.341407924425692 76.59173624827936 0 0 0
5033 1 8.187812042910874 21.203291454267475 78.5283954197791 0 0 0
5034 1 10.639307766078963 23.07644439260814 78.38903310009235 0 0 0
5065 1 9.125100305637268 25.391417601457857 78.78578535628145 0 0 0
4784 1 12.788579368386504 23.015239955135335 76.37026485804891 0 0 0
5036 1 8.755383941987452 23.163252889862225 80.60260856152115 0 0 0
5037 1 12.445309043905542 21.358094431745624 78.42793585878373 0 0 0
5040 1 12.875535467896 23.42436763055712 80.23978940727875 0 0 0
5069 1 13.011075986699153 25.458553566409016 78.3844032268661 0 0 0
5035 1 10.760830320203894 21.280194993102686 80.94241340646992 0 0 0
4782 1 15.14910844102891 23.003678760015102 73.9194943623045 0 0 0
4817 1 17.21278356855723 25.444869353651985 73.89608425450629 0 0 0
5041 1 16.879479438584845 21.18288847928139 78.84255256679216 0 0 0
4783 1 14.713967398906224 21.802063106869586 76.7923224598186 0 0 0
4788 1 16.93595770448945 23.34764911756252 75.83585224714427 0 0 0
4815 1 15.17462785952733 25.470766197897852 76.19866060986574 0 0 0
5038 1 15.107840979087639 23.60178593917649 78.81076711594655 0 0 0
5073 1 16.86512243529352 25.549996836717142 78.06073071929893 0 0 0
5042 1 19.095387027804247 23.03992553680602 78.46510445243455 0 0 0
4787 1 18.780042610880688 21.23475268131279 76.33052365745837 0 0 0
4819 1 19.264198536479157 24.96736988505687 76.547199994077 0 0 0
5044 1 17.34228524652839 23.467388919093892 80.43171777810436 0 0 0
5039 1 14.43297421531045 21.26874094006069 80.33198742218542 0 0 0
5071 1 15.241700595070373 25.88854876398004 80.27795579852105 0 0 0
5075 1 19.564187139224888 25.142478713185046 80.6453450509583 0 0 0
5043 1 19.40044447252237 21.05452205154345 80.63008255115938 0 0 0
4789 1 21.043478544850284 20.72123236656791 74.56266396091591 0 0 0
4825 1 25.114769202758495 25.386772832659 73.94149955785329 0 0 0
4821 1 20.549823965431344 24.945072040968245 74.14117406946008 0 0 0
4793 1 25.18391670571944 21.37963587363955 74.16640073084658 0 0 0
4791 1 23.501158310854528 21.051314642929363 76.13533604398894 0 0 0
4792 1 21.219816515532916 23.001186306678367 76.23490389134533 0 0 0
4796 1 24.97603532799439 23.50140651802031 76.25826372495592 0 0 0
4823 1 22.731650022649557 25.130870364670166 75.79217974081445 0 0 0
5045 1 21.507065547398522 20.986333514456085 78.07544751085 0 0 0
5046 1 23.15414351075736 23.60406287106655 78.45353612708611 0 0 0
5077 1 21.39176584351563 25.431058642298208 78.44461863020739 0 0 0
5081 1 25.06519214507029 25.532822785882882 78.43524297959407 0 0 0
5049 1 24.95563686531743 21.26449906987087 78.03742218187348 0 0 0
5048 1 21.277757324319985 23.11322794949541 80.19625244798827 0 0 0
5052 1 25.40618582000231 23.165214527760053 80.55985429265326 0 0 0
5079 1 23.134895477534954 24.987570496391534 80.7305701536393 0 0 0
4797 1 29.720275302718434 20.655197963551235 74.55479093149486 0 0 0
4795 1 27.30993886919175 20.93022174116846 76.24109367662774 0 0 0
4799 1 31.779920240541607 20.88094687903911 76.87114979897686 0 0 0
4800 1 29.351586914046454 23.391514021715714 76.3312932265316 0 0 0
4827 1 27.070270308701225 25.34912680207515 76.36984463045414 0 0 0
4831 1 31.184889269759932 25.45566873792069 76.72304580731819 0 0 0
5050 1 27.434430104436945 23.283002044187693 78.20869121725238 0 0 0
5053 1 29.544790885350263 21.249714016124265 78.33534722779652 0 0 0
5054 1 31.273172545138515 23.405719625099298 78.57464304468368 0 0 0
5085 1 29.274814912640412 25.71270961153457 78.52122884847309 0 0 0
5051 1 27.156579377524267 21.052950119338114 80.10038378352166 0 0 0
5083 1 27.31976529183931 25.316264313637223 80.43409943081666 0 0 0
5056 1 29.23411938986094 22.828194001723244 80.5559322581108 0 0 0
5087 1 31.550609609176515 25.348224381522872 80.5924085806052 0 0 0
4804 1 0.14661179955322362 27.528497921722565 76.28214556988121 0 0 0
4808 1 3.849649438307836 27.673355385525703 76.47281977958525 0 0 0
5058 1 2.2048566482035983 27.735578538223795 78.31998763001121 0 0 0
4835 1 1.6544688020468394 29.580005474517943 76.53312145744925 0 0 0
4840 1 4.463732135418694 31.302992888800222 76.0628266763985 0 0 0
5090 1 2.2628371999529406 31.342299563313663 78.1741690859497 0 0 0
5093 1 4.471384229206751 29.45495130364509 77.83746990041527 0 0 0
5089 1 -0.0960480931334505 29.706982289445516 78.53538649452491 0 0 0
4836 1 0.49048860273123523 31.773024949458858 76.14474377950792 0 0 0
5060 1 0.3524927648050795 27.449162407874596 80.41071827637597 0 0 0
5064 1 4.31890106471135 27.38698111163544 80.06974049553902 0 0 0
4838 1 6.661669658197006 31.646684160236877 73.93913300631533 0 0 0
5092 1 0.31356866396038313 31.622389865683978 80.4441376883023 0 0 0
5091 1 2.3594690206403137 29.51616445819967 80.09841667826541 0 0 0
5096 1 4.567715622756197 31.6226699137378 80.52960292740568 0 0 0
5095 1 6.692610449151444 29.80822324938246 80.0806859884744 0 0 0
5062 1 6.765594495925142 27.493203785260295 78.39761915715633 0 0 0
5094 1 7.128264166748343 31.611960042889013 77.83241095191131 0 0 0
4839 1 6.808756009271958 29.396381670038128 76.0707689930902 0 0 0
5066 1 11.327069855648032 27.547527814139652 78.51648899364439 0 0 0
4812 1 8.896671749302751 27.201551515416938 76.54107202800066 0 0 0
4843 1 11.20528287580224 29.516895746670265 76.31066971118952 0 0 0
4844 1 8.891045589222543 31.159577470354463 76.05426780471633 0 0 0
5097 1 8.955880190169362 29.54403288276468 78.29830722432145 0 0 0
5098 1 10.436933328957998 31.80717324682242 78.44906434183865 0 0 0
5101 1 12.750512542580204 29.960967160705163 78.4803747165179 0 0 0
4816 1 13.044788906002164 27.32770516352789 76.12122319876013 0 0 0
4848 1 12.649335834747921 31.87566811804193 76.22713290710246 0 0 0
5100 1 8.826510430611954 31.86748063182615 80.65301484630221 0 0 0
5104 1 12.890694893442099 31.591931376167754 80.5909664424436 0 0 0
5068 1 8.745935578135153 27.496227298342962 80.49003916009569 0 0 0
4846 1 14.972079601706056 31.6865403242006 74.52971862843293 0 0 0
4818 1 19.10840601592364 27.41493019096406 74.32593352238027 0 0 0
4814 1 15.499631510153934 27.456355281015156 74.18885362645348 0 0 0
4820 1 17.529470867991215 27.098052758259247 76.12039200314206 0 0 0
5070 1 14.830962530283056 27.51382434071003 78.1715747832071 0 0 0
4847 1 14.649461279836803 29.356142615960348 76.17042477029845 0 0 0
4852 1 17.22095570056038 31.302994460872497 76.5806635956879 0 0 0
5102 1 14.746107947257727 31.57366516642422 78.19042126808475 0 0 0
5105 1 17.41035281266456 29.174299789978143 78.26041967192687 0 0 0
4851 1 19.18596400906282 29.400477105518533 76.10627937557248 0 0 0
5074 1 19.516494073184454 27.294203768175144 78.45581880812065 0 0 0
5106 1 19.372580263914045 31.274784349745048 78.42653745093709 0 0 0
5076 1 17.608656008786 27.705135896390335 80.51562975609899 0 0 0
5107 1 19.523405821904525 29.349511488859775 80.1630250653769 0 0 0
4854 1 23.061050798633303 31.441892390075164 74.52080898994411 0 0 0
4824 1 21.241741475174035 27.372924266149447 76.08086150795734 0 0 0
4828 1 25.075726040582914 27.05593435577877 76.00929458407057 0 0 0
5078 1 23.058691184676103 27.470787791418996 78.26004661584489 0 0 0
4855 1 23.569375289227644 29.668844246783756 76.5199777780337 0 0 0
4856 1 21.15597794199961 31.884475905275714 76.38168592005547 0 0 0
4860 1 25.274686194287867 31.732241594168848 76.27922693716413 0 0 0
5109 1 21.370396679417638 29.40746486194063 78.0486052292153 0 0 0
5110 1 23.15741122114071 31.709681899912095 78.3922824745363 0 0 0
5113 1 25.112504238532022 29.363675158723396 78.58018544839699 0 0 0
5116 1 25.206447191837384 31.873778195909754 80.62766387050323 0 0 0
5080 1 21.540629758231958 27.370179777620535 80.56634722661876 0 0 0
5112 1 20.94168310587254 31.52930038933115 80.47642574725666 0 0 0
4858 1 27.505668676425845 31.54552969030808 74.62514500322702 0 0 0
4832 1 29.537992651696076 27.56543113297857 76.3967778983034 0 0 0
5086 1 31.494446293256136 27.484709621724964 78.49141807440623 0 0 0
5082 1 27.05557282476497 27.436601586148555 78.26112488763461 0 0 0
4859 1 27.310337749472733 29.525867609282788 76.4226078041418 0 0 0
4863 1 31.474190817333596 29.509094582875626 76.47008658111814 0 0 0
4864 1 29.411887310584962 31.50367369522811 76.76389018243425 0 0 0
5114 1 26.887836794573968 31.482513800784208 78.58546940781741 0 0 0
5117 1 29.479196636181946 29.452250440605063 78.49760557747992 0 0 0
5118 1 31.794382824459177 32.07424595293062 78.34515444422837 0 0 0
5119 1 31.564273930297535 29.69450222286238 80.54953807725634 0 0 0
5115 1 27.281670928608126 29.321991373696278 80.34146216500808 0 0 0
5088 1 29.444621213411693 27.40290611217258 80.30627698486089 0 0 0
4868 1 0.5165199364344346 2.671372516391079 80.03812125704054 0 0 0
5122 1 2.2695056333590253 1.93548228085917 82.51818576668114 0 0 0
5128 1 4.088303918368814 2.0091237870012773 84.81307614614087 0 0 0
5155 1 2.1055296808848523 4.343364598523283 84.67606527063768 0 0 0
5157 1 4.516024980908477 3.9909140286670794 83.07369355131026 0 0 0
5153 1 0.6976604972747589 4.091788732301934 82.44789984706055 0 0 0
5124 1 0.19620728457053868 2.079441843972044 84.5147847265779 0 0 0
5125 1 4.7646312020950035 0.4903946791742034 81.89030532490281 0 0 0
5121 1 -0.05201971214060553 -0.06084822510051698 82.38797295955224 0 0 0
5123 1 1.8812994482940997 -0.014097396004817533 84.56470948672354 0 0 0
5378 1 2.080790505098073 1.971950380979391 86.4124337358129 0 0 0
5377 1 -0.21353020017748348 -0.031046205816421642 86.70134339045501 0 0 0
5409 1 0.22777219469352697 4.9239649980878255 86.87660699463225 0 0 0
5413 1 4.332071105129167 4.180711725836483 86.49677511227199 0 0 0
4903 1 6.5785555533800135 4.441247875024989 80.1481275034996 0 0 0
4875 1 10.575257926904904 0.43506783980081054 80.77447400172926 0 0 0
5159 1 7.052181375016545 4.625679716515887 84.5013411555874 0 0 0
5382 1 6.562228114932202 2.3220538851366688 86.58980267756674 0 0 0
5126 1 6.821495116819804 2.652241238083887 82.41407472813103 0 0 0
5127 1 6.081454838173729 -0.1957081408536956 84.34190608552893 0 0 0
5130 1 10.771546155774848 2.529608061434364 82.4766555121989 0 0 0
5132 1 8.404638168569033 2.0193578974197854 84.4533680271637 0 0 0
5161 1 8.559383968828238 4.989657216621234 82.02403294109058 0 0 0
5163 1 10.273047148326691 4.4757639157063664 84.76642033642597 0 0 0
5136 1 12.814555608359633 2.359182457406531 84.94533048145233 0 0 0
5165 1 12.98303637340353 4.522225463557433 82.91507741377468 0 0 0
5133 1 12.683202846162484 0.1893494455831034 82.63067049134337 0 0 0
5131 1 10.828700383919688 0.6577516604996978 84.41938367013341 0 0 0
5389 1 12.719411314322452 0.4408665203694999 86.86639123541343 0 0 0
5129 1 8.223596040218448 0.24862715646426428 82.10963768102367 0 0 0
5417 1 8.206683893557274 4.413641946799532 86.93350883531018 0 0 0
5386 1 10.254796600492316 2.6061612027433085 86.56519829220011 0 0 0
5418 1 10.426440207250135 6.6136746355877145 86.6822628072538 0 0 0
5385 1 8.464297145614273 0.6365249605280053 86.56892630352488 0 0 0
4883 1 18.71637011691838 0.2884761298669372 80.79097869688262 0 0 0
4884 1 16.471163940208992 2.3595540122565244 80.38558710421741 0 0 0
4915 1 19.008665963444734 4.5783773153547465 80.75059492674941 0 0 0
4879 1 15.192556841885876 -0.0731029882225316 80.75552690978263 0 0 0
5134 1 14.937460365100257 2.338952449972909 82.51776302049895 0 0 0
5140 1 16.642725823308794 2.442692263930548 84.75334018226962 0 0 0
5167 1 14.795046894044711 4.730583582698188 84.92926350745044 0 0 0
5169 1 17.114128652538948 4.591174659456021 82.69007044032192 0 0 0
5138 1 18.615561213515317 2.415227040338833 82.6748532733291 0 0 0
5139 1 19.137350641432988 -0.2912737819015021 84.8967338719141 0 0 0
5171 1 18.810261585962554 4.273897567353858 84.95821976947188 0 0 0
5135 1 14.75072874695493 0.18228292747296124 84.52216080922396 0 0 0
5137 1 17.1046852308676 0.21740035938965924 83.02663028155827 0 0 0
5166 1 15.113546674394781 6.681860915387888 82.49399254176915 0 0 0
5393 1 16.975532230753302 0.02254963024125852 86.47217188983672 0 0 0
5390 1 14.765314954927275 2.638773636912866 86.92298974211624 0 0 0
5170 1 19.165741454062143 6.673793822508552 83.12283129485239 0 0 0
5172 1 16.69487958299973 6.644720107740425 84.88058565426346 0 0 0
5394 1 18.554359906821666 2.246354945031796 86.72376664382942 0 0 0
5425 1 16.7682686999446 4.680840998948548 87.26090617045615 0 0 0
4892 1 24.95527709872133 2.4519121013176655 80.55466104884198 0 0 0
4887 1 23.01476434969266 0.4798548758699407 80.8002686130365 0 0 0
4919 1 23.016921169951907 4.677203404997994 80.60890615461462 0 0 0
5142 1 23.039940321348038 2.4500548033117377 82.79871401381168 0 0 0
5144 1 20.5290534934771 2.1603458388859758 84.47435459917426 0 0 0
5173 1 20.695027088760924 4.483283406693535 82.90762519589433 0 0 0
5175 1 22.938508845433308 4.295500385471991 85.00962191347692 0 0 0
5177 1 25.03525842187485 4.25876796887675 83.02537023725051 0 0 0
5148 1 25.165974753754828 1.6610245919320188 84.90189837076245 0 0 0
5145 1 25.19271291045322 0.6580390610715215 82.36607464132399 0 0 0
5141 1 20.99937369889215 -0.017867211861212855 82.52082777351472 0 0 0
5429 1 20.581074691618603 4.030422639758209 86.97162156105796 0 0 0
5397 1 20.63278309320652 -0.07696742408053033 86.98833328918604 0 0 0
5433 1 25.21734509148706 4.557894147890472 86.71884656663883 0 0 0
5398 1 22.75915386982862 1.9933183306743696 86.93508571564843 0 0 0
5180 1 25.401403674095928 6.607291249089062 84.69720671703617 0 0 0
4891 1 27.54153777926142 0.2886130516991543 80.65038490604722 0 0 0
4923 1 27.123746656145904 4.51970760346574 80.67602348995189 0 0 0
4896 1 29.28136506682454 2.4134659395056635 80.50323177489581 0 0 0
5146 1 27.210761604032353 2.7643773695503775 82.51336325768159 0 0 0
5150 1 31.67250251007325 2.190461095599462 82.65714497598931 0 0 0
5152 1 29.400935036950056 2.2118537262593287 84.84925532249478 0 0 0
5179 1 27.381045417167027 4.270913118404693 84.73905536812599 0 0 0
5181 1 29.465453519822184 4.189242969934523 82.4140241435262 0 0 0
5183 1 31.891414233868677 4.3192084945735285 84.12893719038958 0 0 0
5149 1 29.871000347686802 0.08330295530405409 82.24542823404526 0 0 0
5147 1 27.441373160889373 0.227324948565103 83.9664718466602 0 0 0
5151 1 31.179065499412058 -0.0011353232836375693 84.77808369325928 0 0 0
5402 1 27.232904899006044 2.2284322046615275 86.90420458368729 0 0 0
5406 1 31.679030258283237 2.4820634564577095 86.51598228281803 0 0 0
4900 1 0.6000185627687871 6.664747261892898 80.3484476651317 0 0 0
4904 1 4.378974957284987 6.693383294575571 80.99960635925459 0 0 0
5160 1 4.514791472293213 6.68543210848444 84.77606266016049 0 0 0
5154 1 2.3638336112033156 6.607940673427301 82.84326261716812 0 0 0
5410 1 2.324596988996709 6.336921672884903 86.8334983008892 0 0 0
5156 1 0.42016237800172307 7.061794281256473 84.51700852022259 0 0 0
4932 1 0.3382820263014929 10.68890090587397 80.54337843988725 0 0 0
4931 1 2.4655620937184404 8.694931378067793 80.53194598898139 0 0 0
5186 1 2.5520869327976845 10.882068524113384 82.93589231467247 0 0 0
5187 1 2.2548653517666093 8.821779561508746 84.7454581654909 0 0 0
5189 1 4.468750920404038 8.692366687091729 82.57847072867293 0 0 0
5192 1 4.286888507863049 10.542801254358467 85.03480172934714 0 0 0
5185 1 0.21132624776130388 8.592316118922033 82.55058705377428 0 0 0
5217 1 0.18718655562741948 12.97154115071863 82.47015699368684 0 0 0
5219 1 1.735393797585149 13.070701771335052 84.77584607380693 0 0 0
5188 1 0.3440352596704967 10.678354769237759 84.9002351646296 0 0 0
5221 1 4.323946626548202 12.7598196399728 83.09675457981291 0 0 0
5477 1 4.031082553516081 12.415493932006141 86.81172135007755 0 0 0
5445 1 4.5380933114652295 8.352458679461915 86.67230198524362 0 0 0
5442 1 2.1862220087414057 10.499312553731334 86.7690235582271 0 0 0
5441 1 0.517141803014875 8.543146247148082 86.99870044512168 0 0 0
4912 1 12.843764128193014 6.949531163363857 80.5718177562682 0 0 0
4939 1 10.590590731486731 8.694552247005923 80.55825960726322 0 0 0
4944 1 12.805344127197298 10.590226996374694 80.65038818889418 0 0 0
5414 1 6.479253788135923 6.298500310159594 86.70038718079181 0 0 0
5158 1 6.577885200755486 6.820074849351012 82.50453148057672 0 0 0
5190 1 6.31901377294236 10.626228416191386 82.68561305229238 0 0 0
5164 1 8.746306553269433 6.87123636999648 84.42458077933833 0 0 0
5162 1 10.988665390608727 6.688505939992417 82.56901437934498 0 0 0
5168 1 12.932276405274063 6.766485628265832 84.65347307046692 0 0 0
5223 1 5.993099848906409 12.774223453755642 85.04448772981395 0 0 0
5191 1 6.4817403085301875 8.471648673118981 84.50131022036547 0 0 0
5193 1 8.862099333258776 8.963521773225553 82.53398867530528 0 0 0
5194 1 10.818311856437706 10.60335407275751 82.4619428879336 0 0 0
5195 1 10.847408194655074 8.640498171252643 84.32030464491683 0 0 0
5196 1 8.669835269558638 10.562060914123713 84.72062230867344 0 0 0
5227 1 10.319482310425578 12.44543743768064 84.62036941634187 0 0 0
5197 1 12.85075755329159 8.667481902102848 82.67234757153692 0 0 0
5225 1 8.554869382862762 12.665789549949839 82.6851293302273 0 0 0
5453 1 12.513903348199777 8.68153092164102 86.7104380713379 0 0 0
5481 1 8.561546120139608 12.839428456056597 86.61045275957791 0 0 0
5200 1 12.601186137004174 10.80680727571152 84.42802361243825 0 0 0
5450 1 10.852412244369873 10.825699522491977 86.85973030027972 0 0 0
5485 1 12.8158993307351 12.676977357809905 86.62285808101356 0 0 0
5198 1 15.038641081321884 10.577714442635921 82.4658531969948 0 0 0
5199 1 15.036327296868963 8.625457945384133 84.88441055992743 0 0 0
5201 1 17.234156302068193 8.69107306846495 82.85768388953387 0 0 0
5204 1 16.85160595186155 10.635318705470796 84.77518366726063 0 0 0
5203 1 18.917265673225558 8.509095221158601 84.95104876367921 0 0 0
5202 1 19.17752672094243 10.687932013746876 82.51488834983053 0 0 0
5233 1 16.689882773694848 12.84776267164609 82.6899765377934 0 0 0
5235 1 19.075716821869513 12.628099365097126 84.54959484853009 0 0 0
5489 1 16.96490299002211 12.620020417051235 86.21857298939433 0 0 0
5454 1 14.632214385675129 10.55137981336546 86.52438162605084 0 0 0
5457 1 16.737092404863777 8.649926646113633 86.94849253752535 0 0 0
5458 1 18.906442454673282 10.875227433486396 87.19590338573296 0 0 0
5231 1 14.806667546520723 12.869220362892431 84.52536739514235 0 0 0
5426 1 18.84652922253959 6.339857682706297 86.87630883960828 0 0 0
5430 1 23.190349033606648 7.051855788044806 86.67147758196278 0 0 0
5174 1 22.919417021143886 6.54965642911006 82.75854816388532 0 0 0
5176 1 21.186831798215017 6.202651194075581 84.96284755257811 0 0 0
4920 1 20.701386792234672 6.646418812744977 80.6880246901732 0 0 0
5205 1 20.864485661642927 8.518438458568022 82.65366457158238 0 0 0
5206 1 23.071948995054345 10.402183771282598 82.68520823420563 0 0 0
5207 1 23.137224439824625 8.389665820283776 84.3472027382146 0 0 0
5208 1 21.058461980030213 10.520943611335987 85.1416666931645 0 0 0
5209 1 25.158846934144332 8.278656873421145 82.53507485268473 0 0 0
5212 1 25.687945437329187 11.032501566411558 85.09940865485659 0 0 0
5237 1 21.182684427475685 12.900158692417206 82.60323785992124 0 0 0
5239 1 23.12120640366239 12.667415711054208 84.84390776315452 0 0 0
5462 1 23.41151363557672 10.121919947176984 86.58544661332262 0 0 0
5465 1 25.421247994231194 8.411536741567266 86.45438931758761 0 0 0
5438 1 31.979471550715072 6.74928481103846 86.43835864352427 0 0 0
5434 1 27.752602400372794 6.156822827321381 86.49569077293981 0 0 0
5178 1 27.590141800265382 6.329732073348293 82.58185101281398 0 0 0
5182 1 31.950054954899244 6.244678356738671 82.56998116201584 0 0 0
5184 1 29.589155621999268 6.517643324044373 84.50406985416052 0 0 0
5210 1 27.42732932963949 10.760865821569272 82.55920593988334 0 0 0
5211 1 27.46252311505758 8.462405909197397 84.49037362589846 0 0 0
5213 1 29.276498026962187 8.784277261865887 82.68509229204736 0 0 0
5214 1 31.621953970908802 10.82593282121401 82.63204534731459 0 0 0
5215 1 31.410621663044875 8.834051198329892 84.64067130687096 0 0 0
5216 1 29.265672578753804 11.155921435505514 84.83625109373939 0 0 0
5247 1 31.30358609547415 12.875917632843842 84.85770684876327 0 0 0
5466 1 27.444022963512005 10.722412850921755 87.11466281442401 0 0 0
5470 1 31.65988281371579 10.636631652619132 86.76836803867656 0 0 0
5469 1 29.700268452558113 8.861785642494047 86.64721010663129 0 0 0
5243 1 27.11607776822123 13.089575378183056 85.41879289551184 0 0 0
4968 1 4.563975611169922 15.19741862047407 80.68366144299117 0 0 0
4996 1 0.2659865114336176 18.898734591750713 80.95768353691821 0 0 0
4995 1 2.774106412730988 17.223637874920605 80.41125420740063 0 0 0
4999 1 6.5180390858776 16.92861343841075 80.81346897134459 0 0 0
4964 1 32.95995380914188 15.158840994178627 80.67121430312436 -1 0 0
5218 1 2.2420737868319405 15.103814011355825 82.74375781166681 0 0 0
5224 1 4.276369662287823 14.787541240806712 85.24622320925621 0 0 0
5250 1 2.6203463473502864 19.2549630449291 82.77812630038181 0 0 0
5251 1 2.4176163211174426 16.75052922533994 85.31413909005632 0 0 0
5253 1 4.142278259305433 16.955409971266718 83.21544061990403 0 0 0
5220 1 0.10780698967420776 15.185835511390703 85.06442826431606 0 0 0
5252 1 0.43105090753730735 18.813025541137783 84.28136082558218 0 0 0
5249 1 0.16900456075575682 16.74924469388804 82.43042405859586 0 0 0
5256 1 4.465404627937244 19.152865138253823 84.85097975445963 0 0 0
5254 1 6.439411073192749 19.2965444855132 82.77517542555157 0 0 0
5222 1 6.676244603090818 14.633354434944371 82.72056361107592 0 0 0
5505 1 0.07801176891183038 16.748336438037395 87.06723428935793 0 0 0
5229 1 13.173983486557976 12.984302522546788 82.3375892913248 0 0 0
4972 1 8.814686366999013 14.563036686002976 80.93924894263445 0 0 0
5255 1 6.549193356971734 16.96603166388655 84.69852710446649 0 0 0
4976 1 12.82911317110359 15.063948456720773 80.46810378097413 0 0 0
5004 1 8.61608628182742 19.113823661550253 80.66270365012421 0 0 0
5003 1 10.690824109199475 17.0050397502214 80.73753133948303 0 0 0
5226 1 10.97141155598025 14.812672066215473 82.98366183840432 0 0 0
5228 1 8.974497183758302 14.73045615984468 84.70284758777119 0 0 0
5257 1 8.50738212428102 17.095380360890804 82.56052231685027 0 0 0
5259 1 10.430382123541737 17.06442247154645 84.42899202721054 0 0 0
5260 1 8.479987325064224 19.266084098334403 84.41098875956193 0 0 0
5258 1 10.707084122015406 19.116632538496734 82.33327877161226 0 0 0
5261 1 12.752593548996673 17.15545474310714 82.46511161474636 0 0 0
5232 1 12.897552458786127 15.095973574173751 84.62093889980646 0 0 0
5264 1 12.584242433407237 19.07564584013554 84.6920340706326 0 0 0
5517 1 12.99114104300634 16.917187010812206 86.74185166445749 0 0 0
5513 1 8.596008697975163 16.65494088151113 86.92435321322283 0 0 0
5482 1 10.743539506158154 14.489159525186782 86.48159470115826 0 0 0
5514 1 10.505127865826775 18.730427572637673 86.83946558242663 0 0 0
5007 1 14.826230119792026 17.38245280420538 80.0572811431488 0 0 0
5011 1 19.051489562410477 16.702891426251195 80.43305853971347 0 0 0
5230 1 14.687059190803561 15.145956066069777 82.51767400085396 0 0 0
5236 1 16.544621791565163 14.71377358117267 84.75455851849671 0 0 0
5262 1 15.436998792087417 18.692247550908593 82.40053452093893 0 0 0
5263 1 14.73470952309233 16.93278133570499 84.81633112033302 0 0 0
5265 1 16.91190565045088 16.540835415574424 82.42032491046331 0 0 0
5268 1 17.106851591358517 18.96326507388012 84.7742033775099 0 0 0
5266 1 18.87831818823319 18.716445860786976 82.58865656298444 0 0 0
5234 1 18.766321768133157 14.758724458357532 82.86521137992393 0 0 0
5267 1 18.712994660505135 16.836026455790627 84.77734927923136 0 0 0
5486 1 14.726912321086305 14.51669400811526 86.61882897094067 0 0 0
5521 1 16.541947618072083 16.989223822617575 86.68581320237548 0 0 0
5518 1 14.532860752557463 19.73145205801453 86.63247007693973 0 0 0
5490 1 18.819219535006816 14.610909160789541 86.62815757386771 0 0 0
5522 1 18.873715606782657 19.075863152059792 87.1695062904768 0 0 0
4984 1 21.017116905146683 14.925031102971673 80.48729311359406 0 0 0
5241 1 25.30294784486164 12.876922406741784 82.8437399393551 0 0 0
5238 1 23.237423887002915 14.734426954637541 82.58066186305807 0 0 0
5240 1 21.090929546197795 14.828015768114346 84.57439701741026 0 0 0
5244 1 25.125555241276615 14.85764593887268 84.74425732237964 0 0 0
5269 1 21.398334715107143 16.726743751787193 82.55476799443665 0 0 0
5271 1 23.20750223592822 16.984311617157083 84.74938695746688 0 0 0
5272 1 20.919330117725288 18.88058457038873 84.61426764184617 0 0 0
5273 1 25.405747895183357 16.636688414262323 82.43946828937968 0 0 0
5276 1 25.078976184533463 19.0698003268424 84.12277124338802 0 0 0
5270 1 23.285018512162907 19.03915877256255 82.23702456269801 0 0 0
5494 1 23.039795276513004 14.630374809561044 86.61932962123055 0 0 0
5526 1 23.094097502216375 19.04218346934559 86.46778621405227 0 0 0
5525 1 21.126093336465203 17.26243854941271 86.8615262744609 0 0 0
5529 1 25.203784776352265 16.883689096545766 86.49073764909645 0 0 0
4992 1 29.793128832608314 14.635639383768261 80.97985878863511 0 0 0
5245 1 29.393492062530946 12.675805726940634 82.94134982343631 0 0 0
5242 1 27.38438160160026 14.626142588413837 82.95477299890516 0 0 0
5246 1 31.481144900811415 14.936154962542647 83.15692974943062 0 0 0
5248 1 29.084474582008976 15.376287189512343 85.11221525356693 0 0 0
5274 1 27.00046970567648 19.045727147783875 82.45978266286545 0 0 0
5275 1 27.15151217089672 17.068906920576925 84.32345958917539 0 0 0
5277 1 29.810750279513613 17.008519711853854 82.77966012164327 0 0 0
5278 1 31.344861356186517 19.129928420178036 82.71914690397189 0 0 0
5279 1 31.576858838319275 17.02915258110248 84.71022302278102 0 0 0
5280 1 28.992600016799468 18.998825542672044 84.59628676118432 0 0 0
5530 1 27.085017856521873 18.835447370936606 86.75704484728864 0 0 0
5502 1 31.646489543083913 14.62694185585957 87.41424636318747 0 0 0
5533 1 29.442466111052656 17.270653247489193 86.87308418618856 0 0 0
5534 1 31.51461192107939 19.19757467329573 86.27599699307963 0 0 0
5032 1 4.311035796246098 23.433210414687093 80.28361516324799 0 0 0
5027 1 2.1436134783384118 20.889273254332984 80.67546720507727 0 0 0
5283 1 2.4682945621115793 21.38493286434731 84.4272265142873 0 0 0
5282 1 2.5385258789445504 23.304843929276842 82.1285107175604 0 0 0
5285 1 4.273012328640019 21.459419931336274 82.6943185552335 0 0 0
5288 1 4.393122538548095 23.59020700648433 84.58788201004221 0 0 0
5315 1 2.120195156981658 25.775222991070315 84.45302179570315 0 0 0
5317 1 4.332382468216759 25.67737052997421 82.41631985756746 0 0 0
5284 1 0.49791327889759696 23.626956710854547 84.54272871609739 0 0 0
5313 1 0.6450980337283196 25.37248392308226 82.32643697141782 0 0 0
5281 1 0.12956804134121938 21.190628636671974 82.70723409173468 0 0 0
5569 1 0.2951992547803975 25.147850305780683 86.88005719013623 0 0 0
5537 1 0.5497159458221027 20.968742324511407 86.27354851755489 0 0 0
5538 1 2.3835760488766136 23.202510831241195 86.54345510056343 0 0 0
5031 1 6.6117137107052 21.6840264794445 81.04042786523418 0 0 0
5286 1 6.604048530006074 23.42030289468696 83.10560282747053 0 0 0
5287 1 6.706328712259483 21.32470145425849 84.64356155412437 0 0 0
5319 1 6.856743262265128 25.8660575042394 84.33952608311019 0 0 0
5067 1 11.116617638570649 25.30001785070564 80.53471494832844 0 0 0
5289 1 8.704742703494427 21.293171164799965 82.39001129597978 0 0 0
5290 1 10.719997034502411 23.542455781437937 82.53004638531809 0 0 0
5291 1 10.563743766484508 20.759484478673055 84.57758406958101 0 0 0
5292 1 8.89284658845403 23.306165881716456 84.65896635712973 0 0 0
5321 1 8.629147715584224 25.65737203016255 82.26522760699926 0 0 0
5323 1 10.931455778322599 25.19805945472372 84.66533245659897 0 0 0
5293 1 12.741508535479053 21.383335765572106 82.8244695508443 0 0 0
5325 1 12.933736894061749 25.710600642760834 82.72335409629872 0 0 0
5581 1 12.901289346846388 25.294766783169898 86.87523461095888 0 0 0
5577 1 8.940675574129571 25.375117243950708 86.40598679043211 0 0 0
5546 1 10.823243939264195 23.25312278604008 86.87805638316588 0 0 0
5296 1 12.803193959731855 23.31356810529807 84.66934592784942 0 0 0
5545 1 8.74370148939534 21.340254343146146 86.68711535563219 0 0 0
5549 1 12.352539186079184 21.095517304392384 86.4925284515979 0 0 0
5294 1 14.768952296206992 23.74409896065417 82.23502201035029 0 0 0
5295 1 15.083451513930267 21.61662197578742 84.29616366743971 0 0 0
5297 1 16.934308261321554 21.078966120100645 82.2195905423084 0 0 0
5300 1 16.987219328560887 23.259944855436427 84.07120713886343 0 0 0
5327 1 15.142864540426036 25.04722579819442 84.77615387666823 0 0 0
5329 1 17.181712529622562 25.50409215351449 82.60811893231255 0 0 0
5331 1 19.06856749400705 24.821388560641225 84.72353730255989 0 0 0
5298 1 19.359897809478948 22.90474756811861 82.55607932294816 0 0 0
5299 1 18.693951231272298 21.105632105049864 84.50835464705901 0 0 0
5554 1 19.031677355484806 23.000811896144864 86.76038565617716 0 0 0
5047 1 23.226975476381043 21.181829712870506 80.4492005298206 0 0 0
5301 1 21.359518399582257 21.008288126787278 82.29857047418983 0 0 0
5302 1 23.26390096535844 23.11261663700628 82.29133513890696 0 0 0
5303 1 23.01853798432097 21.164409886382405 84.6898926573877 0 0 0
5304 1 21.11388014096125 23.122004651664202 84.58110271787095 0 0 0
5305 1 25.232484500514005 21.187823509937214 82.32117652382313 0 0 0
5308 1 25.467255717995105 23.086782350510216 84.43683485931336 0 0 0
5333 1 21.097383547496552 25.060591260454576 82.59080579495634 0 0 0
5335 1 23.301577268351526 24.686652554504285 84.6304629142148 0 0 0
5337 1 25.19801078869525 25.264966590197517 82.67353696296502 0 0 0
5589 1 20.527437342288902 25.565992580084167 86.86918850748411 0 0 0
5558 1 22.982862043106234 23.400097681887427 86.82094111745342 0 0 0
5593 1 24.937851757007106 25.341775915588773 86.80636519958951 0 0 0
5561 1 25.00717541344767 21.290044195598433 86.58980620802961 0 0 0
5055 1 31.641560012051773 20.88432132938874 80.51619083247122 0 0 0
5307 1 27.05089041515915 21.1291831384555 84.36502734684596 0 0 0
5306 1 27.51743459299378 23.630092132726283 82.40712501221974 0 0 0
5309 1 29.119069304937174 20.856935541974465 82.68264695098964 0 0 0
5310 1 31.73132633228631 23.16169741617996 82.66711522233088 0 0 0
5311 1 31.350204179664118 21.239270527888937 84.75293856995907 0 0 0
5312 1 29.00834362023674 22.93287318451337 84.99175196450443 0 0 0
5339 1 27.279354532417024 25.30990081636509 84.80751333446605 0 0 0
5341 1 29.773283913182684 25.244299573240326 82.44198433230244 0 0 0
5343 1 31.490163925161344 24.926284624887117 84.56745750913485 0 0 0
5562 1 27.181892226701287 23.188079008725683 86.88088980370206 0 0 0
5597 1 29.059411054989805 25.03257960938191 86.73479938143619 0 0 0
5566 1 31.113063158145096 23.03211656518203 86.97418789529246 0 0 0
5314 1 2.3505629036589704 27.565647069885728 82.39252816455905 0 0 0
5316 1 -0.06084796166822843 26.950303440734253 84.32519215726394 0 0 0
5320 1 4.6340446498028705 27.220685270231396 84.40014458127415 0 0 0
5346 1 2.287888678950523 31.807825630569052 82.45926173246161 0 0 0
5347 1 2.537617745280659 29.23071788493456 84.17309711752942 0 0 0
5349 1 4.582799413275242 29.500575132627485 81.9341050242562 0 0 0
5352 1 4.3652958365369825 31.119800660859042 84.55141857841856 0 0 0
5345 1 0.306473473560563 29.496930206298423 82.4992125898984 0 0 0
5348 1 0.4185785633067099 31.09584606037053 84.66346389394751 0 0 0
5605 1 4.552546768180902 29.300427180390887 86.56110418820072 0 0 0
5351 1 6.862097415412948 29.244693751837907 84.33505513884718 0 0 0
5570 1 2.3130905837926194 27.2752491778173 86.76683120908235 0 0 0
5602 1 2.218605488615445 31.115164258843183 86.98166810078538 0 0 0
5099 1 10.937668430300127 29.779578340712735 80.49048254005167 0 0 0
5072 1 12.976637018127892 27.584701085585746 80.65017044197914 0 0 0
5318 1 6.68724006840122 27.807085866362844 81.94432434884881 0 0 0
5350 1 6.951917771897194 31.30773816886593 82.71927337015185 0 0 0
5322 1 10.6330382442276 27.85468864333814 82.27011797937979 0 0 0
5324 1 8.982792407759794 27.325510550183537 84.20936734343198 0 0 0
5353 1 8.700770186304139 29.575623098908014 82.0640743497658 0 0 0
5354 1 10.42993884582948 31.959352991557715 82.69378225518308 0 0 0
5355 1 10.589921135585815 29.632876653573796 84.62237909517457 0 0 0
5356 1 8.854742689825429 31.941980131028554 84.72601126438623 0 0 0
5578 1 10.856458038460326 27.26007587028172 86.42664954938134 0 0 0
5328 1 12.671888477919362 27.554878563749202 84.65543077620138 0 0 0
5609 1 8.462439186736807 29.536996874482107 86.90635985902236 0 0 0
5606 1 6.968306454797583 31.398335643189178 86.50111287225354 0 0 0
5574 1 6.402857597490758 27.265337473475405 86.93725456383585 0 0 0
5103 1 14.88655549968074 29.624957949206895 80.34788613955098 0 0 0
5108 1 17.328552373397496 31.284427983955762 80.06006208215416 0 0 0
5360 1 12.747921497474666 31.67316842734556 84.70033575133071 0 0 0
5357 1 12.792084737204696 29.69420651488793 82.73693034790146 0 0 0
5326 1 15.328673801134912 27.45552820101505 82.74974253156343 0 0 0
5332 1 17.10775443493116 26.984882402583473 84.99414094738368 0 0 0
5358 1 15.072824123025809 31.151350023134416 82.55215888442824 0 0 0
5359 1 15.394192487590407 29.308320741649393 84.73201936724539 0 0 0
5361 1 17.152858481070442 29.78725037095451 82.67583512807411 0 0 0
5364 1 16.969434578572148 31.42138401730662 84.65351592245649 0 0 0
5362 1 19.130415382799914 31.170203259252126 82.76015528687616 0 0 0
5363 1 18.985402346982635 29.371768022521575 84.74589273516537 0 0 0
5330 1 19.157750334659028 27.600848279448506 82.93295524350998 0 0 0
5586 1 18.637173813255696 27.43569700850893 87.21987991505067 0 0 0
5618 1 18.978372743690052 31.261237515322016 86.97354711729274 0 0 0
5617 1 16.851294297317395 29.28882638110971 86.92094560798286 0 0 0
5143 1 22.946519810180806 0.24818602130304326 84.3650417630181 0 0 0
5111 1 23.455947765245323 29.313489627119093 80.49742237860207 0 0 0
5084 1 25.26392229152918 27.27160443821286 80.75278353861394 0 0 0
5336 1 21.31453520843139 27.131045231313653 84.46643974277258 0 0 0
5334 1 23.09608863458542 26.875215830794332 82.69587586775778 0 0 0
5340 1 25.27506322731386 27.566223358546658 84.0952633227754 0 0 0
5365 1 21.303856342367986 29.521012955490026 82.52614160390925 0 0 0
5366 1 23.33331311145591 31.439376054188926 82.24699987114593 0 0 0
5367 1 23.107635571430162 29.403555793134913 84.37894753132845 0 0 0
5368 1 21.3845952866181 31.32107527189396 84.57505678697498 0 0 0
5369 1 25.459184973515615 29.618471285049228 82.59252394095833 0 0 0
5372 1 24.978130339158927 31.974400373098206 84.52458406266054 0 0 0
5590 1 23.18289391212564 27.324221807282978 86.78504655763564 0 0 0
5625 1 24.868148990784874 29.651824341686904 86.43406650813844 0 0 0
5621 1 21.14650188700643 29.4218833208391 86.69360094610954 0 0 0
5120 1 29.782719437481948 31.74062568044922 80.27267793072386 0 0 0
5342 1 31.68659276742617 27.343355733196706 82.30145985719155 0 0 0
5338 1 28.104104234742415 27.300047321012862 82.6074581176848 0 0 0
5344 1 29.04933389155637 27.2420412373257 84.92669311478546 0 0 0
5370 1 27.7709089889543 31.42746179707885 82.0982524323319 0 0 0
5371 1 27.28522786819752 29.688722046744083 84.70319714560107 0 0 0
5373 1 29.484355082866276 29.43449130100306 82.46786214381127 0 0 0
5374 1 31.406762822481944 31.349039077297103 82.61483197657492 0 0 0
5375 1 31.311563276483486 29.36317871666396 84.47183233748254 0 0 0
5376 1 29.178595526929236 31.40438079168482 84.78461060827394 0 0 0
5594 1 26.697235345304108 27.736233030197763 86.54218821415968 0 0 0
5629 1 29.51830318225074 29.430389386862633 86.74670374394404 0 0 0
5381 1 4.25317678011558 0.49435147012354475 86.67404384339414 0 0 0
5384 1 4.657663409375298 2.3195760116537647 88.99337210683196 0 0 0
5411 1 2.1333930106982777 3.88788597189853 88.30570837502276 0 0 0
5634 1 2.3646582273766534 2.2001458849123754 90.91166363074045 0 0 0
5669 1 4.158659097242107 4.4789552082278705 90.87864578238302 0 0 0
5380 1 0.31519942228591386 2.094228679361136 88.78065239728988 0 0 0
5379 1 2.380026062854897 0.22802439657939022 88.839349166169 0 0 0
5665 1 0.16320696665620574 4.30447615308236 91.01082996555044 0 0 0
5637 1 4.296961137697876 -0.10981037530721409 91.08795704329609 0 0 0
5667 1 2.0871542826617935 4.315037306015665 93.21008462721018 0 0 0
5633 1 -0.2118460281812002 -0.17882209214634645 90.86084991304021 0 0 0
5640 1 4.335455168533833 2.398440961430552 92.83360271256649 0 0 0
5638 1 6.3875293888207105 2.4894686282037415 91.2602220606281 0 0 0
5671 1 6.239590713790152 4.514753833136908 93.14515007218814 0 0 0
5415 1 6.281376177902931 4.440543522680246 88.90703897458033 0 0 0
5668 1 -0.0719475818668113 6.2139779146946665 93.10116364739196 0 0 0
5636 1 -0.09567109468980427 1.8177015541438812 92.73964628889843 0 0 0
5635 1 2.1179096428632906 0.1462867819445715 93.15009919810186 0 0 0
5421 1 12.385814310847408 4.572352281218049 86.89671953471108 0 0 0
5383 1 6.35247037557504 0.08927375024477158 88.6167882357659 0 0 0
5388 1 7.947249693265357 2.4900452358267313 88.87250950359591 0 0 0
5419 1 10.436946888949878 4.416756083743152 89.07803136103328 0 0 0
5642 1 10.388660482141036 1.98991617194846 90.87675212802414 0 0 0
5673 1 8.11349652738839 4.272766543964874 91.01276508660995 0 0 0
5677 1 12.463675296362824 4.084062840671677 91.09313203722192 0 0 0
5392 1 12.080981186423854 2.3330372477544854 88.83123573378529 0 0 0
5641 1 8.351525556682347 0.4526338343382766 90.9509422860609 0 0 0
5387 1 10.729328836136606 0.4034290214757895 88.45550219353137 0 0 0
5675 1 10.314046403818171 4.242542995926279 93.12255953143362 0 0 0
5644 1 8.196736821957007 2.194881550483968 93.21844914257478 0 0 0
5639 1 6.147475767438066 0.042395092855644884 93.15535523402815 0 0 0
5680 1 12.755306308208104 6.751000742546919 93.12484081503001 0 0 0
5420 1 8.273329898040066 6.113562089647168 89.32207743122859 0 0 0
5648 1 12.6123273561347 2.101041626945285 93.1395060360825 0 0 0
5422 1 14.603166400111267 6.572357080456518 87.18905612445428 0 0 0
5645 1 12.761077528534916 0.5041576812173747 90.52339876668906 0 0 0
5396 1 16.671434328218965 1.9900242522896836 88.70564336911038 0 0 0
5423 1 14.466998299396037 4.138571089547912 88.97298091580728 0 0 0
5646 1 14.884776553466061 2.3020458967499127 90.69807503259779 0 0 0
5681 1 16.71511130142122 4.365131590698659 91.13763061660072 0 0 0
5427 1 19.021472413541105 4.44841374726615 89.06100524412068 0 0 0
5650 1 18.501397204196085 2.055044681646066 90.77796093300206 0 0 0
5649 1 16.47165311621171 -0.23999007467125674 90.847407225006 0 0 0
5395 1 18.35607388521148 -0.17596068915293528 88.89250303971403 0 0 0
5391 1 14.74859781551761 0.27464160781008407 88.78645057846909 0 0 0
5651 1 18.389195716497927 0.44913253425085287 93.34932399344132 0 0 0
5652 1 16.77840482058668 2.4595684554692223 93.03493081415733 0 0 0
5679 1 14.69317581343081 4.628628545970289 93.16731248760966 0 0 0
5682 1 18.838070845244477 5.932963374233134 91.16237678871867 0 0 0
5678 1 14.583544728811306 6.436593096395519 91.04604633985078 0 0 0
5683 1 18.849359103899936 4.394457129843457 93.2440751308615 0 0 0
5428 1 16.55400606184299 6.548916539691373 89.27862614368661 0 0 0
5401 1 25.01442205821491 0.051525941275561836 87.27602479085688 0 0 0
5400 1 20.79422777107782 2.1337726116985145 88.91520291807893 0 0 0
5404 1 24.786361438384436 2.02954284860091 88.70252501072999 0 0 0
5431 1 23.019735425585345 4.7536615800189335 88.43589795214386 0 0 0
5654 1 22.986279530111066 2.550589383845651 90.72002688598569 0 0 0
5685 1 21.426651665224533 4.696039147333271 90.89368959765667 0 0 0
5689 1 25.33589556522669 4.724162475290482 91.06376241072047 0 0 0
5653 1 20.688022100790132 0.25603358950855387 91.0949244903989 0 0 0
5656 1 20.67172307824521 2.448802890176093 92.4336539087839 0 0 0
5399 1 23.022289440242947 0.07484868609370718 89.3035376870329 0 0 0
5657 1 25.41092547545599 0.2878159305332197 90.93251235605945 0 0 0
5660 1 24.85983250711969 2.5204747313135494 92.93939389478894 0 0 0
5688 1 20.895743044647006 6.392262290485546 93.00190152789668 0 0 0
5687 1 23.46874908193065 4.916220176204004 93.06067711598698 0 0 0
5655 1 23.13886347547441 0.0959767444616634 93.00334791673176 0 0 0
5437 1 29.923285756274655 4.537514289713831 86.83199591778565 0 0 0
5405 1 29.123830626939792 0.1296552272965616 86.49995680723792 0 0 0
5658 1 26.982301984903103 2.439686625156899 90.406152015177 0 0 0
5408 1 29.242404283717878 2.4843431695142915 88.33621966179558 0 0 0
5435 1 27.36037468415986 4.607200198599545 88.65663929007734 0 0 0
5439 1 31.53710288255916 4.196840407897764 88.85600011241687 0 0 0
5662 1 31.54319000944659 2.041357041801722 90.64604745267127 0 0 0
5693 1 29.603730901389746 4.382000521805209 90.66511616000346 0 0 0
5403 1 27.276841371325666 0.27972617895679885 88.80737715142254 0 0 0
5407 1 31.08477475008338 0.21600530485256186 88.5159506609715 0 0 0
5664 1 29.45627908473072 2.1612892521013323 92.69086785081124 0 0 0
5659 1 27.64966433483065 0.20694330379421455 92.51254080094407 0 0 0
5661 1 29.56148969823564 0.26420145348859564 90.62491440248546 0 0 0
5691 1 27.607554758763428 4.509992492452484 92.74630497899874 0 0 0
5416 1 4.372941625636855 6.173453250448094 89.16357652820506 0 0 0
5412 1 0.4282726212925683 6.286471482539257 89.04642032591983 0 0 0
5672 1 4.198282318837103 6.319408822226318 93.18008705637774 0 0 0
5473 1 0.03669907308775802 12.622621520526332 87.21360390329819 0 0 0
5670 1 6.435006563949719 6.407203165920266 91.47876773340182 0 0 0
5666 1 2.2074490147757273 6.606746067978852 91.15508032355037 0 0 0
5443 1 2.3297384951330073 8.680904837709678 89.02379468776908 0 0 0
5448 1 4.7293106284285935 10.227461074799674 88.31259929397383 0 0 0
5698 1 2.289533756487523 10.283584634378064 91.30595043014146 0 0 0
5701 1 4.458291946323112 8.13078697458833 91.23615504052835 0 0 0
5697 1 0.21829919056988847 8.492867414703014 91.48470853091796 0 0 0
5444 1 0.39366056901555907 10.56561340497613 89.63215917890045 0 0 0
5475 1 2.1736380191332 12.346378507315448 88.98108416196186 0 0 0
5733 1 4.120183643182067 12.528890325199376 90.91620904308229 0 0 0
5729 1 0.3205960959716136 12.808993602066403 91.29141193254921 0 0 0
5704 1 4.586188024898631 10.728679519839876 93.11347738208696 0 0 0
5699 1 2.4419672167383295 8.350961009798253 93.53174397125277 0 0 0
5731 1 2.5206533687629484 12.646480788878945 93.3090614250198 0 0 0
5446 1 6.593382262735314 10.55472092948048 86.49984151836995 0 0 0
5449 1 8.55857759033204 8.36530674975347 86.93429347361902 0 0 0
5424 1 12.741306259366066 6.4726189786264126 89.03334046870893 0 0 0
5674 1 10.415565424239924 6.160699708919801 91.03263041869415 0 0 0
5447 1 6.410438209238872 8.184173995505557 89.33725314150105 0 0 0
5702 1 6.214007870163704 10.255713090176645 91.126358022088 0 0 0
5479 1 6.445682994675058 12.516349216729305 88.83870294954247 0 0 0
5451 1 10.73237961958359 8.568802182505365 89.11209303962755 0 0 0
5452 1 8.540980709121333 10.361603468605525 88.96326445558944 0 0 0
5705 1 8.438743642735076 8.308017118496261 91.20760993454938 0 0 0
5706 1 10.356543077522817 10.735545907409483 91.08535615752179 0 0 0
5456 1 12.737539456753375 10.531697202434945 89.10693846671688 0 0 0
5737 1 8.552858375104517 12.468949437105232 90.87393292288333 0 0 0
5709 1 12.666293010502471 8.138214785653007 91.20740147024893 0 0 0
5739 1 10.653720722625051 12.87698101133529 92.76627323490165 0 0 0
5741 1 12.542598554808578 12.658016598474177 90.6961624568008 0 0 0
5708 1 8.703857772582548 10.408189685757828 92.86246044292606 0 0 0
5483 1 10.567822684703561 12.770999102628315 88.98801221087994 0 0 0
5707 1 10.487701142605456 8.186997484965989 92.92575260505639 0 0 0
5735 1 6.707548540746901 12.835248740119491 93.06431669937686 0 0 0
5703 1 6.787784034465064 8.330005671526553 93.51928785369358 0 0 0
5712 1 12.558272931365275 10.057041347764239 92.92751404537202 0 0 0
5455 1 14.694735304182494 8.7810646004829 88.68197173096223 0 0 0
5460 1 17.138102228363152 10.445813835372778 88.98119994967438 0 0 0
5710 1 14.698602141058304 10.310569334508735 91.2923983852193 0 0 0
5713 1 16.810232874040555 8.295039025103982 91.22264618287045 0 0 0
5459 1 18.956697702355427 8.214180583630878 88.88111928789903 0 0 0
5714 1 18.86042433458631 10.684218091921835 91.14921354917196 0 0 0
5487 1 14.891060465698182 12.245105623126912 88.57144267692026 0 0 0
5491 1 18.729235013844306 12.760899647335611 88.86604220246241 0 0 0
5716 1 16.68879256411606 10.799933580623826 93.47476888249481 0 0 0
5745 1 16.615575226963394 12.389476561762024 91.20917725811175 0 0 0
5743 1 14.445468919347604 12.825228197937259 92.56046584597625 0 0 0
5684 1 17.07045851682777 6.558752423026754 93.36343243801832 0 0 0
5715 1 19.045992501482257 8.750148889728681 92.61384868925846 0 0 0
5747 1 19.308217438210878 12.573960926221767 93.57767522400101 0 0 0
5493 1 21.380014992419778 12.520605406419238 87.2229482032984 0 0 0
5461 1 20.83638903513882 8.314082105569225 86.80949397406893 0 0 0
5497 1 25.284726364494208 12.613114782153215 87.49537120316892 0 0 0
5432 1 21.138612515403576 6.714890070655988 88.70671512973749 0 0 0
5436 1 25.352073945498372 6.911094975487366 88.68296317026041 0 0 0
5686 1 23.455185527405742 6.760792390082885 90.7327107468166 0 0 0
5463 1 23.391235926339853 8.620797188209504 88.84707312788565 0 0 0
5464 1 21.255117804129554 10.351091375235734 89.02931332033035 0 0 0
5717 1 21.154425234248126 8.29280786770124 91.10369345147276 0 0 0
5718 1 23.502859020213464 10.879786503526912 91.253098040441 0 0 0
5721 1 25.634300502408692 8.263935952275151 91.24774332550895 0 0 0
5468 1 25.29591073083268 10.385986906489373 89.28261640570923 0 0 0
5495 1 22.866794983882237 12.821295909134196 89.27301105558954 0 0 0
5749 1 20.953682223077145 12.251779169534231 90.94970322071534 0 0 0
5720 1 21.636370154963107 10.929481512399047 92.92374041027131 0 0 0
5751 1 23.357603344947726 12.764555681301411 93.35722818802927 0 0 0
5719 1 23.56889145908628 8.267756634889912 92.98469574362598 0 0 0
5753 1 25.488860269109118 13.223436457366196 90.66450578225505 0 0 0
5692 1 25.643505433519724 6.256867710518652 93.11725320456627 0 0 0
5724 1 25.372342965491296 10.357364598746928 93.04483972703764 0 0 0
5440 1 29.759978682307825 6.581646521657364 88.50734992709681 0 0 0
5694 1 31.61486137058441 6.434137943034823 90.65240852743216 0 0 0
5690 1 27.554408221417834 6.434503499852924 90.56117502687898 0 0 0
5467 1 27.655489450425105 8.716568515350309 88.61303086456307 0 0 0
5471 1 31.69808871751811 8.72130192612582 88.90519875937635 0 0 0
5472 1 29.92465489705346 10.432615081592758 89.27601219197243 0 0 0
5722 1 27.600708704805477 10.48844948481226 90.95754604030132 0 0 0
5725 1 29.422589870089553 8.58735278229253 90.7928322462958 0 0 0
5726 1 31.757732718339028 10.4433367889318 91.3597139451023 0 0 0
5503 1 31.843400074636122 12.673571940427125 89.39864467085093 0 0 0
5499 1 27.70145609642828 13.222677781165244 88.80802075502933 0 0 0
5757 1 29.65973157193576 12.48026940196966 91.2660286455655 0 0 0
5755 1 27.18403887998909 12.614870442306598 93.14930263050314 0 0 0
5723 1 27.793660749708202 8.493717952520683 92.90597390432147 0 0 0
5501 1 29.850756793459368 12.714420032575356 87.46195247377479 0 0 0
5696 1 29.58425579082854 6.469607418092245 92.58780931993903 0 0 0
5474 1 2.396135651117694 14.538629228389363 87.17958984107881 0 0 0
5509 1 4.728009778131066 16.82803338630569 86.87515539779947 0 0 0
5506 1 2.759667245359022 19.264385275366255 86.44266985491451 0 0 0
5510 1 6.598368621206156 19.186668748303056 86.8768049393441 0 0 0
5480 1 4.36035432930154 14.490434373911691 88.92339889052401 0 0 0
5507 1 2.303077885390867 17.084046834771335 88.86446491827951 0 0 0
5512 1 4.540128510498595 19.057620705113564 88.9032431432124 0 0 0
5730 1 2.3895687304159736 14.689001198749462 90.92183829708229 0 0 0
5762 1 2.293751457562603 19.099720708593978 91.13862916641315 0 0 0
5765 1 4.119815632299384 16.470811445708467 90.84075725904893 0 0 0
5761 1 0.29650550492583183 17.233090933639765 91.02817866494858 0 0 0
5508 1 0.29234360084957445 19.314132908893423 88.7183778450601 0 0 0
5736 1 4.683732637001177 14.303819393659783 92.76052919709223 0 0 0
5732 1 0.293143239708348 14.93656600275659 92.82904900324334 0 0 0
5768 1 4.8234171161419 18.575908284996313 92.56882675788265 0 0 0
5766 1 6.553901357195165 19.060274267658087 90.63751743578567 0 0 0
5476 1 0.5987129366950457 14.812919106577183 88.95242865370729 0 0 0
5764 1 0.6397809027692644 18.430924832094874 93.31281786708217 0 0 0
5478 1 6.50241441975344 14.691309056217085 86.73698911923292 0 0 0
5767 1 6.566939002189567 16.433065182795108 92.67573235076162 0 0 0
5734 1 7.188513645580196 14.62162962183441 90.98114212077448 0 0 0
5511 1 6.273150343304413 16.50383575188312 88.98910827102665 0 0 0
5484 1 8.448551262405703 15.010698044291678 88.89622724455656 0 0 0
5515 1 11.011060030676369 17.108037198992733 88.94134821288023 0 0 0
5516 1 8.376445364347422 18.943321256354754 88.76974589306376 0 0 0
5738 1 10.582993377105224 14.912697322198882 90.89196179245758 0 0 0
5769 1 8.786399175207178 17.11447669839754 90.78760376835594 0 0 0
5770 1 10.72251476328519 19.158552573311056 90.76805085897043 0 0 0
5773 1 12.952385347025354 16.567401831923533 91.13636881423692 0 0 0
5740 1 8.759200893958104 15.023308163941445 92.94048172806737 0 0 0
5771 1 10.805479649569845 17.108880777114397 93.037625966928 0 0 0
5488 1 13.008345965175472 14.620455282661467 88.60789595525448 0 0 0
5772 1 9.221651749885334 19.05434592715001 92.86344225035907 0 0 0
5744 1 12.648967716583376 14.66699679774068 93.17255665315251 0 0 0
5520 1 12.815709336471201 19.127244464344344 88.94688082665704 0 0 0
5776 1 13.197467365566384 18.924533943848388 92.82422281530215 0 0 0
5492 1 17.02538751784967 15.04955191228735 88.28505128213808 0 0 0
5519 1 14.822117419842709 16.947648211955233 88.81272917473004 0 0 0
5524 1 16.702322859749174 19.04331518057083 88.33184736086956 0 0 0
5742 1 15.156375967039486 14.590331127861056 90.29891778824285 0 0 0
5774 1 14.868531091868197 18.762539562332957 90.71458467052767 0 0 0
5777 1 17.18071628541471 16.746448220372116 90.47862116340137 0 0 0
5778 1 18.966492816241214 18.810806966971555 90.97252378449805 0 0 0
5523 1 19.384939674869415 16.889426835700224 88.90264430467745 0 0 0
5746 1 18.88655844355137 14.332490466613988 90.91071251141744 0 0 0
5748 1 16.681658661213724 14.802773456393544 92.99988400960916 0 0 0
5775 1 14.914484265916412 16.901799888042397 92.89592569307312 0 0 0
5779 1 18.76532729138783 16.762032103363055 92.92535213776085 0 0 0
5780 1 16.76873605986973 18.748323905296974 92.75617483503794 0 0 0
5496 1 20.915269445408644 14.733511384196348 88.69133051698807 0 0 0
5500 1 24.897585375142604 15.203719501312085 89.01615679709764 0 0 0
5527 1 23.06989495973347 16.864220475561453 88.7764538228468 0 0 0
5528 1 21.25213135759457 19.20095674304234 89.06834779728024 0 0 0
5750 1 23.051110057199175 14.71285151839262 91.14389516583674 0 0 0
5781 1 20.942639253243467 16.728969030078602 90.8696399983545 0 0 0
5785 1 25.459374145484976 16.79045194420137 90.99944589139803 0 0 0
5782 1 23.174517371578848 18.810314206385808 91.25309934374523 0 0 0
5532 1 24.901433344003408 19.0165291083892 88.71591120351441 0 0 0
5756 1 25.044885548528526 14.863008192287934 92.92955667960939 0 0 0
5752 1 20.76140718316959 14.932403980786177 92.87884999274529 0 0 0
5788 1 25.55733476580353 18.574604478166705 93.01340188347862 0 0 0
5783 1 23.003779483148655 16.960957565003923 93.30306321137788 0 0 0
5498 1 27.160474653007523 15.141807327597187 86.9675010211092 0 0 0
5531 1 27.402400297114262 17.00623034819139 88.90610496019953 0 0 0
5504 1 29.400294567519325 15.443440321457894 88.63061530774273 0 0 0
5535 1 31.830028590490887 16.858894227707616 89.07800508556332 0 0 0
5536 1 29.30195265437771 18.834514742565993 88.84377825467352 0 0 0
5754 1 27.60711863129819 14.693749649520585 91.2897369101003 0 0 0
5758 1 31.31820151653246 15.069604248524975 90.97008465412303 0 0 0
5786 1 27.213811494673696 18.956180273401817 90.87686193549422 0 0 0
5789 1 29.28561464030566 16.90151355690323 90.93009644355695 0 0 0
5790 1 31.433494120944953 18.791084949520403 90.95260843410429 0 0 0
5791 1 31.484822724160534 16.87507110476457 93.09441824096527 0 0 0
5787 1 27.431531043967368 16.8188216086673 93.29252154810817 0 0 0
5792 1 29.32452689727309 19.10029104659947 93.01920968907702 0 0 0
5573 1 4.283585562273348 25.066814958330223 86.78000506013699 0 0 0
5541 1 4.474154450120962 21.436749545553322 86.706691878094 0 0 0
5539 1 2.476146176446375 20.806402091935947 89.11920394868436 0 0 0
5544 1 4.230452273985096 23.078534363097756 88.89693324133637 0 0 0
5571 1 2.2399431260368137 25.233399773542203 88.90985309814118 0 0 0
5794 1 2.2070561261805044 23.360209427463136 90.83297974059379 0 0 0
5797 1 4.363925718940245 21.44670721280346 91.03838996119389 0 0 0
5829 1 4.382872488709502 25.260778452463324 90.92846343118119 0 0 0
5793 1 0.3014153129387264 21.200341469827272 91.11293517144728 0 0 0
5825 1 0.1534282911011079 25.329107502258115 90.34249755215964 0 0 0
5795 1 2.577775440622482 21.155984297873562 92.9876667062579 0 0 0
5540 1 0.3615635593041394 23.103525427324673 88.61968090868189 0 0 0
5827 1 2.2492727583950876 25.53667121104668 92.70844664355698 0 0 0
5798 1 6.4288606529141905 23.290866963417855 91.0179445967599 0 0 0
5800 1 4.699458928408142 23.402408488111764 92.79754914728744 0 0 0
5799 1 6.53228984754694 20.825955751315725 92.94426619277286 0 0 0
5796 1 0.693694600898822 22.985533983944865 92.95761484742027 0 0 0
5543 1 6.46002416204801 21.14182775090203 88.74763049679898 0 0 0
5542 1 6.7290104986230785 23.34605292520215 86.67561514824845 0 0 0
5575 1 6.299933644668029 25.292650044433664 88.64157393410937 0 0 0
5547 1 10.60835495963192 20.875930276194826 88.58517874129552 0 0 0
5548 1 8.480572991784447 23.435521237714866 88.93009544047266 0 0 0
5579 1 10.424234649533098 25.58587044083891 88.6320958286358 0 0 0
5801 1 8.673447795716857 21.29327144490448 90.55567475364076 0 0 0
5802 1 10.495995198047458 23.450469026622294 90.71326714974701 0 0 0
5833 1 8.574367944947292 25.674817288557662 90.84665388306989 0 0 0
5837 1 12.968567961085746 25.070074815376813 90.70780882208088 0 0 0
5805 1 12.632179819695214 21.227298950966397 90.94061536949253 0 0 0
5831 1 6.932781326794515 25.559703235791243 93.40943652202564 0 0 0
5552 1 12.56371716093216 23.09371192562375 88.95107862107368 0 0 0
5803 1 10.77182238879052 21.321736317641296 92.96913616551075 0 0 0
5835 1 11.211448036457048 24.544942182168185 92.81951063818376 0 0 0
5553 1 16.741000874267776 21.42450484924768 86.67805474584375 0 0 0
5585 1 16.726369926505953 25.118253415257886 86.77655483775811 0 0 0
5550 1 14.509373395192092 23.144965974054948 87.15447421944378 0 0 0
5551 1 15.064700963549246 21.137236467567003 89.03017174840038 0 0 0
5556 1 17.044050916219494 23.252940351788 88.63177262418856 0 0 0
5583 1 15.196711440992035 25.535864637730217 89.08529038164875 0 0 0
5806 1 15.082445834081838 23.229791150169724 90.83614470652742 0 0 0
5809 1 16.795216295222005 21.194195076951566 91.08051491124716 0 0 0
5841 1 17.25362076520575 25.299286806183883 91.0112687422762 0 0 0
5555 1 19.223061027109196 20.99776487323702 89.003546850199 0 0 0
5587 1 19.365005001261576 25.168088406605825 89.06579436420164 0 0 0
5812 1 17.15606665681359 23.246642264965615 93.08751644076106 0 0 0
5807 1 15.194551171292865 20.84163139030492 92.99274823791343 0 0 0
5811 1 18.980050497793357 20.92205016703497 92.81307734227208 0 0 0
5843 1 18.982907054644215 25.365931413375403 93.38554606320245 0 0 0
5557 1 20.73445027862124 20.918720530036317 86.37642760370798 0 0 0
5810 1 18.661479636684025 22.945827276141106 90.93669539248974 0 0 0
5559 1 23.121262810730812 21.276200962051778 88.8330412380436 0 0 0
5560 1 20.978264614343743 23.10198996255017 89.00621917787942 0 0 0
5564 1 25.097085162761587 22.96717121473514 88.71241807506308 0 0 0
5591 1 23.20009229442081 25.4198139690085 88.80731279367127 0 0 0
5813 1 21.1405465409254 21.2478152626212 91.01708459013219 0 0 0
5814 1 23.053437644529843 23.629102374912986 90.7407501216699 0 0 0
5817 1 24.719819614787532 21.506229707678315 90.84245048976987 0 0 0
5845 1 20.668618458579317 25.636144414790536 91.26463334378631 0 0 0
5849 1 25.481697801633693 24.861528037095038 90.92027321742354 0 0 0
5815 1 23.26778722488199 21.29536551543276 92.81797762309647 0 0 0
5816 1 20.87863029651229 23.007328262630686 92.72739553077425 0 0 0
5820 1 25.193614317525167 23.359910455415427 92.96258018412432 0 0 0
5565 1 28.81271322856072 21.048610529215768 87.26829172231598 0 0 0
5563 1 26.87774181095879 20.946483212859178 89.00850323467708 0 0 0
5567 1 31.228185333398226 20.77463703290048 88.4408147239963 0 0 0
5568 1 28.988516612020852 23.249622860613673 88.93202356809165 0 0 0
5595 1 27.02698404656021 25.27853137842043 88.66023306328876 0 0 0
5599 1 31.39718460285542 24.78823423602454 88.81288162804854 0 0 0
5818 1 27.28446805907505 23.044691340885645 90.95715632749061 0 0 0
5821 1 29.349717791946407 20.766028495515798 90.70547486812421 0 0 0
5822 1 31.635742158772103 22.91163131141722 90.65990446863022 0 0 0
5853 1 29.321007137831415 25.186588536059357 90.86299390840499 0 0 0
5851 1 27.353932426693436 25.14908064948582 93.18082507286256 0 0 0
5601 1 0.1466338526081552 29.240509912432817 86.62194000367629 0 0 0
5572 1 -0.05974161725701732 27.508569237145153 88.76790446609047 0 0 0
5576 1 4.278549732864495 27.306493984397708 88.88409578178027 0 0 0
5826 1 2.1639371075188754 27.37132525207895 90.7965562929351 0 0 0
5603 1 1.9682890659841044 29.39732572155293 88.74245118234501 0 0 0
5608 1 4.500467009677191 31.509424172721765 88.49164112325326 0 0 0
5858 1 2.0667299309609786 31.480135616187003 91.32440439892787 0 0 0
5861 1 3.8390011068176597 29.3808611101591 90.66320632184735 0 0 0
5857 1 0.2944918238671368 29.399071058342415 90.98408558064592 0 0 0
5604 1 -0.1675304285593944 31.339137892605603 88.6928873441188 0 0 0
5860 1 -0.09470309451969278 31.2394315913015 93.04339641069542 0 0 0
5864 1 4.323424817140711 31.235854352634924 93.39843554004693 0 0 0
5828 1 0.047768692499553005 27.329852464418334 92.82101440517842 0 0 0
5832 1 4.323485668718159 27.251287968203382 93.1610362991595 0 0 0
5859 1 2.2449632385882095 29.388284474697034 93.20017560181175 0 0 0
5610 1 10.685725096975554 31.5651210040911 87.02618281164739 0 0 0
5613 1 12.887022102245856 29.603262124165862 86.1867077410133 0 0 0
5830 1 6.316247716551358 27.360164581411016 91.17827959846365 0 0 0
5862 1 5.978598897056881 31.55065811200601 90.94567113719498 0 0 0
5607 1 6.59673740796182 29.560655415552294 88.75755892982299 0 0 0
5834 1 11.021404630419951 26.868757322988515 91.39464456019616 0 0 0
5580 1 8.215606141013406 27.280123694083535 88.63318096779126 0 0 0
5611 1 10.738389450698955 29.2939501165933 88.57334323240778 0 0 0
5612 1 8.25420166146414 31.7579625317572 89.06619194603272 0 0 0
5865 1 8.940238673572782 28.940717445543466 90.59697536079585 0 0 0
5866 1 10.71473317806635 31.49751736562056 90.71123733013583 0 0 0
5584 1 12.467978378790026 27.25120328537584 89.21372468124518 0 0 0
5869 1 12.891593631102582 29.327491913247886 90.90479275965508 0 0 0
5872 1 12.537711506082571 31.748819378028983 92.6418829039551 0 0 0
5616 1 12.884271234429225 31.24819010215218 88.27602274439631 0 0 0
5582 1 14.623243267348933 27.58468533301695 87.01259442298272 0 0 0
5614 1 14.730367612140071 31.881720163903843 86.52089140803541 0 0 0
5588 1 17.050612156567954 27.613753250033152 89.21363242965344 0 0 0
5838 1 15.385374351474457 27.26432833777246 91.17819759379381 0 0 0
5615 1 14.920386237818786 29.30067375359395 88.8624764489772 0 0 0
5620 1 16.710131162077413 31.097643736051666 88.98890363857588 0 0 0
5870 1 14.454693359388104 31.486501230590328 90.77271127196805 0 0 0
5873 1 16.85981316571966 29.928865516243455 91.14730508630463 0 0 0
5842 1 19.08019418620051 27.75050339321439 91.30438650953761 0 0 0
5874 1 19.021413575394384 31.473706233179172 91.1473127223218 0 0 0
5619 1 19.07230536329054 29.539019968877703 88.99015530670938 0 0 0
5876 1 16.954057822746435 31.539280721348096 93.20949089672905 0 0 0
5875 1 18.863947342772093 29.295759268258532 93.38383572754765 0 0 0
5871 1 14.978070009889313 29.628399098462044 92.75172027489234 0 0 0
5622 1 22.857569140884337 31.844118563534792 87.08006546543001 0 0 0
5846 1 23.31351154806888 27.553329179103677 90.92454652000222 0 0 0
5596 1 25.21847227149658 27.52353591856179 88.65612586734429 0 0 0
5592 1 21.296694899904733 27.62230185563463 88.66009275222218 0 0 0
5623 1 23.192136497635726 29.49553785611076 88.96568574035936 0 0 0
5624 1 20.94611150143654 31.47124036138892 89.02622936945637 0 0 0
5628 1 25.55593724510268 30.932399634474212 88.64291047860215 0 0 0
5877 1 20.99263863461965 29.70888973978842 91.374696855068 0 0 0
5878 1 22.995281325445415 31.279823922463397 91.13762073842027 0 0 0
5881 1 25.460353742631092 29.136885563372267 90.84148259224385 0 0 0
5880 1 20.72766772411972 31.88516906661115 93.16131608254312 0 0 0
5879 1 23.639664567561702 29.143008982628903 93.09261853232202 0 0 0
5884 1 25.13508543269497 31.540154562542753 92.95079292488519 0 0 0
5852 1 25.308362538436622 27.13167123854573 93.0221706109278 0 0 0
5848 1 21.501737100718312 27.51220544909295 93.05382569950007 0 0 0
5630 1 31.334846965660237 31.48655570581672 86.27963224237119 0 0 0
5598 1 31.300520471246795 26.7517748817406 86.55135425192579 0 0 0
5626 1 27.028362527912492 32.180953386770476 86.39958282857266 0 0 0
5850 1 27.157591396610368 26.60340617492929 90.84282567579083 0 0 0
5600 1 29.00994623338297 27.172237329549482 88.60562520319202 0 0 0
5854 1 31.603615554130304 27.209021140677102 90.45631183889867 0 0 0
5627 1 27.550010598467317 29.308464081852577 88.64668762668782 0 0 0
5631 1 31.114576882693715 29.66984485811607 88.88412499178686 0 0 0
5632 1 28.79730957023494 31.556920950667216 88.6366503786909 0 0 0
5882 1 27.47214554275226 31.14262241112567 90.78463764994383 0 0 0
5885 1 29.252951712114793 29.03998896885501 91.29891385868703 0 0 0
5886 1 31.052590243759 31.296141978170937 91.22296989670865 0 0 0
5887 1 31.485840870491952 29.18979116153702 93.23620192279492 0 0 0
5883 1 27.335649726194898 29.011078109762437 93.23378859969803 0 0 0
5888 1 29.43122935378399 31.422034534264665 93.25677889263096 0 0 0
517 1 0.12646870375721958 4.639232536721287 99.25621338414504 0 0 -1
61 1 2.110660426688936 6.857501220339837 -0.9268946822185771 1 0 0
64 1 1.8287544563407945 2.5088577954794284 -0.8864157339246074 1 0 0
5890 1 2.1342800034798826 1.9991919914486909 95.12892786278196 0 0 0
5896 1 4.2483177594028465 2.100860546504133 97.32947129868012 0 0 0
5923 1 2.34544148025671 4.445921033942766 97.42012620156785 0 0 0
5925 1 4.211080550309632 4.173701130635132 95.18960072747505 0 0 0
5889 1 0.08425812962911132 0.18179674518345026 95.3269811082088 0 0 0
5892 1 0.10401366648700777 2.502116390217392 97.26337428513867 0 0 0
5893 1 4.024847093083588 0.10190952039389643 95.05571986084774 0 0 0
5921 1 0.012473068925229843 4.12410192315752 94.86551286000851 0 0 0
1 1 0.1762580658168751 0.16169211718956641 99.38979312920621 0 0 -1
5928 1 4.329592174664098 6.70053416407572 97.42287814067619 0 0 0
5891 1 2.2182262576277774 0.3215009458293375 97.48696872298314 0 0 0
294 1 8.916270692884458 4.1509195416662195 99.22732996300238 0 0 -1
5643 1 10.330453317045205 0.02068738339591711 93.09798874597287 0 0 0
5676 1 8.727472406032762 6.209347675524419 93.405008092708 0 0 0
5 1 6.648632283584613 2.585302983876858 99.27166768246587 0 0 -1
5895 1 6.324203455428761 0.21509705165897516 96.95723168787266 0 0 0
494 1 10.388767963632365 1.918998102222174 99.31832643982658 0 1 -1
5894 1 6.153588942493115 2.065084497522637 94.77407443474146 0 0 0
5927 1 5.951495870027705 4.5182343947933035 97.43119611596717 0 0 0
5898 1 10.544220174793676 2.228199567617029 94.98744363171747 0 0 0
5900 1 8.763862445771355 2.032459641712254 97.15211345144664 0 0 0
5929 1 7.867917817708851 4.002893999519472 95.54715489110605 0 0 0
5931 1 10.89600762813165 4.593663309730045 96.92592579799401 0 0 0
5897 1 8.463119737111786 0.07980444833026273 94.90667685346136 0 0 0
5899 1 10.50889450119035 0.1795875969086617 97.0093131583721 0 0 0
5901 1 12.605867887523203 0.21640292916020723 95.00945092618026 0 0 0
45 1 12.441344853451785 4.552068349350068 99.38441738421136 0 0 -1
5933 1 12.608251197225979 4.318114910507092 95.03904170003933 0 0 0
5904 1 12.483737853727401 2.5452202623024434 97.28778483381593 0 0 0
69 1 5.857054571667906 6.631336290881859 -0.9799254297971203 0 0 0
5926 1 6.064553404577182 6.265911970346842 95.2071866705674 0 0 0
208 1 12.514052335653046 -0.011082306418210395 -0.9747167604451343 0 1 0
14 1 19.001925455560976 2.4727385403308246 99.03918578489403 0 0 -1
5647 1 14.649146919964368 0.20047000129913978 92.780861199104 0 0 0
113 1 16.780225701229334 4.380359761280367 99.46840544208045 0 0 -1
53 1 16.78120463524594 0.6930968564945348 98.93661705462523 0 0 -1
305 1 14.348451281659898 1.9999886949054846 99.0991306326402 0 0 -1
5902 1 14.71361581554807 2.103083983068032 94.89101642087874 0 0 0
5908 1 16.357619694967365 2.6001750363121374 97.0388892050104 0 0 0
5935 1 14.536212839176704 4.45450486008751 97.36672643784354 0 0 0
5937 1 16.661692520443555 4.369043194913805 95.215062289691 0 0 0
5905 1 16.727386515961374 0.31255257297638994 95.13737490409065 0 0 0
5939 1 19.092761906930537 4.636008253364851 97.14534392163162 0 0 0
5907 1 19.12790711468176 0.2477805266899937 97.14230913218796 0 0 0
5906 1 18.785027448106508 2.4843910958491513 95.31311412175172 0 0 0
5938 1 19.247326848276142 6.66731189195677 95.32007244250414 0 0 0
86 1 19.076224353497107 6.394340612144809 99.3166628353478 0 0 -1
5934 1 14.636947482962286 6.657049523634919 95.19508760219496 0 0 0
25 1 25.004787122130974 0.19460035934025066 99.2403642388119 0 0 -1
534 1 21.188559274394205 4.341658461254831 99.15075473832367 0 0 -1
289 1 25.195122308899325 4.5849270928259305 99.32010932487002 -1 0 -1
50 1 23.503669618050907 2.627357775057083 99.08272575965657 0 0 -1
5910 1 23.003213558590105 2.1661560525147654 94.67997187479507 0 0 0
5912 1 21.28091070243714 2.238336575384061 97.05450587422746 0 0 0
5916 1 25.15466291035122 2.0609483245075917 96.7704733736586 0 0 0
5941 1 21.208938930950865 4.232334238453455 94.8837914688826 0 0 0
5943 1 23.181663413079256 4.358560933055785 96.76230629327915 0 0 0
5945 1 25.48538325897153 3.9753678879280785 95.06570180566484 0 0 0
5909 1 20.875945387404414 0.8078578742255174 94.62419774826033 0 0 0
5913 1 25.313928669500083 0.102222868626284 94.81598839704277 0 0 0
5911 1 23.172836583410074 0.10555318225040089 96.9814540966501 0 0 0
115 1 23.18515764310178 6.462660921872691 99.05249080388734 0 0 -1
5942 1 23.085900214134117 6.6769834447586955 95.33567656471686 0 0 0
5948 1 25.60879919834208 6.065235825831024 96.95288098065258 0 0 0
95 1 29.34249942693354 4.025822188638124 -1.0844402409016993 0 0 0
30 1 31.63495505851774 2.24870296568071 99.15161315363808 0 0 -1
5695 1 31.40863736823391 4.198151973045682 92.79334260950013 0 0 0
5663 1 31.32534926425482 0.13955669061914397 92.91030343052192 0 0 0
512 1 26.92341151350227 2.236072302161349 99.3024717328278 0 1 -1
5914 1 27.30679896594843 1.9894280091211645 94.86288725746923 0 0 0
5918 1 31.436853548689495 2.0030770155789113 94.87175244884868 0 0 0
5920 1 29.18193094344353 2.185551161504068 96.90125212605972 0 0 0
5947 1 27.16435290824924 4.117008580490569 97.25489593758458 0 0 0
5949 1 29.19849009431342 4.215064679470458 95.17505400575484 0 0 0
5951 1 31.1914006793122 4.05687338947212 97.0387725353839 0 0 0
5917 1 29.657151356334648 0.01974038466731905 95.04551733681141 0 0 0
5915 1 27.608630493465405 0.3168451795872035 97.11927326498005 0 0 0
254 1 29.61284754155229 0.5005442667063368 98.9893707713561 0 1 -1
5919 1 31.573797132222264 0.12969958564443992 97.20834451603129 0 0 0
5700 1 0.4502575927387105 10.716553995506846 93.31088234833042 0 0 0
97 1 2.318797460166588 10.119675843648231 99.38074957855389 0 0 -1
5924 1 -0.050807333971980576 6.143978889925189 96.91120755744545 0 0 0
5922 1 2.457547435750917 6.336046349807462 95.23128819679714 0 0 0
5954 1 2.3088291217869292 10.731469690003717 95.34119706094891 0 0 0
5955 1 1.8588135621661162 8.373785691333469 97.14540896220541 0 0 0
5957 1 4.727864360801553 8.953722523170832 95.06848583459971 0 0 0
5960 1 4.418149971753124 10.377866950223648 97.22166045097384 0 0 0
5953 1 -0.11351028220459171 8.190291768996335 95.26181967106339 0 0 0
5956 1 0.2393448751616159 10.376615182438751 97.56976142884311 0 0 0
5989 1 4.742642716505207 12.827675771922747 95.66706159206001 0 0 0
5985 1 0.2641981180253155 13.040283684422953 95.37906692630801 0 0 0
5987 1 2.9702257453788596 12.903484199735562 97.39985266988492 0 0 0
101 1 0.028236713843252333 12.186276503841622 -0.8491111735163474 0 0 0
5959 1 6.685224256382816 8.482620621198656 97.41002514848083 0 0 0
266 1 10.580946584525048 6.559652727619265 99.45124831053835 0 0 -1
5932 1 8.4490075666247 6.271735913370561 97.7213870303139 0 0 0
5930 1 10.65837325919266 6.612646804115195 95.20565135464379 0 0 0
5936 1 12.769641652703568 6.584527537706508 97.6693431024032 0 0 0
271 1 12.923725748330199 8.812664842570292 99.10907691413499 0 0 -1
70 1 10.77884923414062 10.716417597187926 99.12167724115106 0 0 -1
197 1 12.763481453939814 13.047786706576447 99.37280869336698 0 0 -1
5958 1 6.931330733136344 10.789128684202156 95.22951177927378 0 0 0
5991 1 7.095423235619323 12.680556833673492 97.34271677540976 0 0 0
326 1 8.450267343880812 8.83136804079958 99.47577681900495 0 0 -1
5961 1 8.47140655273788 8.306249672237705 95.35465711535969 0 0 0
5962 1 10.815924030144483 10.527447780307785 95.29342068941295 0 0 0
5963 1 10.493263440418007 8.469775609498166 97.06888836819935 0 0 0
5964 1 8.831867310277856 10.413462373670775 97.24685439954071 0 0 0
5995 1 10.77994527861314 12.833584285001445 97.45147608271628 0 0 0
5993 1 9.279037877588422 12.632306280476099 95.39080899972129 0 0 0
5968 1 12.964473449257973 10.8824484285255 97.36509600458946 0 0 0
5965 1 12.630057120849335 8.547353239421867 95.19000085728788 0 0 0
5997 1 12.495142862436666 12.481664530276477 95.11455471331422 0 0 0
5711 1 15.017973736112369 8.583112907686306 93.31075019016573 0 0 0
5940 1 16.646297229731214 6.5280990965056604 97.16713289823643 0 0 0
76 1 17.100374573835463 12.660682804860647 99.10384640230379 0 0 -1
46 1 14.876342505169886 6.5036621992053485 99.48733705662465 0 0 -1
55 1 16.850529895585332 8.675706305522931 98.6716967339702 0 0 -1
142 1 15.000062454452559 10.815187745680335 99.38821243061197 0 0 -1
475 1 18.790863648277664 10.329915036986641 98.86147191960787 0 0 -1
5966 1 14.800797617306594 10.734297596246575 95.27646805070853 0 0 0
5967 1 14.536005568021283 8.605169469291262 97.15458269379904 0 0 0
5969 1 16.897564159994655 8.78542502027911 95.30201254201842 0 0 0
5972 1 16.724168348527776 10.929975327327089 97.13035836092638 0 0 0
5971 1 19.356297768520268 8.246230570495149 97.1272960499639 0 0 0
5970 1 19.02605905360757 10.719606561642259 95.25534073510997 0 0 0
6001 1 16.686264631526356 13.089579547832507 95.03873598443802 0 0 0
6003 1 19.494973311009065 12.763168726404313 97.36548899854436 0 0 0
5999 1 14.503331237198495 13.174008558643598 97.26425457414945 0 0 0
121 1 21.01955330609095 8.40822682734485 99.0973936355525 0 0 -1
5944 1 21.181120821934616 6.582523750396567 97.06018610685595 0 0 0
59 1 25.584071953323253 8.314002045913242 99.4552901637802 0 0 -1
244 1 21.059950463075715 12.528444790939849 99.36117719783506 0 1 -1
5973 1 21.43835628666638 8.672112530935404 95.04559127875457 0 0 0
5974 1 23.517215250150418 10.881893843213485 95.50785205834858 0 0 0
5975 1 23.600849535406297 8.504416256744753 97.49176617146176 0 0 0
5976 1 21.291343848332698 10.49326113984112 97.01786395904365 0 0 0
5977 1 25.6698603532021 8.166156096389166 94.87209269510463 0 0 0
5980 1 25.709380632094792 10.806818368139686 97.33054726844288 0 0 0
6009 1 25.663697314910134 12.861313458307679 95.26692113789315 0 0 0
6005 1 21.424152671144686 12.500686403080932 95.2753836538106 0 0 0
6007 1 23.18769728265244 13.054296248133433 97.32507221545164 0 0 0
104 1 31.239535738378546 6.496712524282602 98.9546538697642 -1 0 -1
5759 1 31.662466973396622 12.856074829104296 93.0435099653524 0 0 0
5728 1 29.53668793852132 10.427996488400245 93.02145986745128 0 0 0
5727 1 31.625217473661007 8.275568344136296 93.12648232589764 0 0 0
100 1 31.276444547864585 10.582103713553176 -1.0501746813664 -1 0 0
90 1 27.51902570204426 6.2470242574830515 99.39410765574742 0 0 -1
5952 1 29.1763665526627 5.954676435715064 97.21046121474649 0 0 0
5946 1 27.695832417497826 6.379097135230708 95.17172721546721 0 0 0
127 1 29.085578923676284 12.694008850698184 99.24417316706752 0 0 -1
5950 1 31.255601744453138 6.239516768340145 95.09317039837973 0 0 0
577 1 27.362840438497315 10.642364389760877 -0.9970639289892752 -1 0 0
767 1 29.016786941685787 8.17937590151952 99.13537977368348 0 1 -1
5979 1 27.235516697510946 8.228104342596428 97.0991676633957 0 0 0
5978 1 27.575256080395885 10.588187029009049 94.88712481788454 0 0 0
5981 1 29.317399489850423 8.191015226863472 95.01236379365477 0 0 0
5982 1 31.525311974454144 10.208220032245904 94.99457947960911 0 0 0
5983 1 31.15715173145026 8.260018382453762 96.88816217937739 0 0 0
5984 1 29.381680369696962 10.212438332648892 97.07903143027669 0 0 0
6015 1 31.305271718212005 12.109186066367007 97.08164113287464 0 0 0
6013 1 29.695713336830874 12.674492725416277 94.86016102170473 0 0 0
6011 1 27.863223006430076 12.635552441829596 96.88736071538209 0 0 0
414 1 4.245711887765768 17.092565784173217 99.10178455780463 1 0 -1
5763 1 2.6390242491962077 16.75159412584122 92.99013157950948 0 0 0
98 1 2.398044526790542 19.12451095469276 98.9183591832212 0 0 -1
105 1 0.5783334762009744 17.021507035580626 98.77820997064467 0 0 -1
354 1 2.97990974891085 14.831433508957863 99.30409535126672 0 0 -1
5986 1 2.441309019733543 14.601919310514893 95.18703871199956 0 0 0
5992 1 4.292984660396818 15.341096598427699 97.10017132220732 0 0 0
6018 1 3.0492027074411423 19.052544010132607 94.58875195737096 0 0 0
6019 1 2.5993479331376586 17.178951717332303 96.96864634629128 0 0 0
6021 1 4.74842309258378 16.69796569000227 94.67513425651352 0 0 0
6017 1 0.4267969066989565 16.499510765235275 95.62949793698793 0 0 0
5988 1 0.48514631554095616 14.554712732635496 97.51615302716472 0 0 0
6024 1 4.832090922778216 19.180710315880724 97.20921794277223 0 0 0
6020 1 0.5108236277192918 18.903559503143878 96.86610424803645 0 0 0
5990 1 6.795125702391608 14.409737210675592 94.93693598847817 0 0 0
162 1 6.454207507336053 19.070817178447783 99.08625423181556 0 0 -1
6022 1 6.916202347634407 18.875814569309227 94.51729592891884 0 0 0
876 1 10.775217282045135 14.866550915396052 99.35457837641654 0 0 -1
134 1 11.092258904276148 18.67331115241012 99.23112903927678 0 0 -1
6023 1 6.594023719663369 16.913209734267305 97.08572566319394 0 0 0
74 1 8.530926811255307 17.050461466958396 99.43290637456126 0 0 -1
5994 1 10.687916515534656 14.687825575984778 94.89520033219544 0 0 0
5996 1 8.45537430018624 14.800909414317767 97.26409208566606 0 0 0
6025 1 8.819470952389578 16.98489565134208 94.7386640784895 0 0 0
6026 1 10.885365688927482 18.975523363751982 95.0291411720675 0 0 0
6027 1 10.46994258903923 16.91044190093277 97.36991180780566 0 0 0
6028 1 8.557351288739767 19.10701416695191 96.9513630506144 0 0 0
6029 1 12.52919990964535 16.90614334990887 95.37272083369331 0 0 0
6000 1 12.526887561845106 14.904274419992758 96.83476321186289 0 0 0
333 1 12.953444151062344 16.581609235845196 99.41759723187404 0 0 -1
6032 1 12.9976759793631 18.803612105878756 97.20785826557206 0 0 0
276 1 19.18383423365336 18.849180803544563 99.38366507910979 0 0 -1
558 1 14.827939677538604 14.768588842893948 99.48715257489813 0 0 -1
621 1 17.17520777257164 17.38242641697216 99.17753677256655 0 0 -1
338 1 19.142722024151517 15.220013527845593 99.48461022048762 0 0 -1
397 1 14.81509173006892 19.157663306704006 -0.9710405114834697 0 0 0
5998 1 14.607393646357352 14.71137422703128 95.05593420579491 0 0 0
6004 1 17.156715949809424 14.64068414799857 97.10590878481213 0 0 0
6030 1 14.91704802749086 18.732274828875518 94.9059289525245 0 0 0
6031 1 15.027490186034026 16.511421356484764 97.06464635845336 0 0 0
6033 1 17.008426116997285 16.44047175311801 94.96847907488271 0 0 0
6036 1 16.57020264175374 19.32400625334758 97.09552415419968 0 0 0
6002 1 19.49090851854747 14.78670216399038 95.27822600487711 0 0 0
6035 1 18.865660604594446 17.228509613208914 97.38817744205275 0 0 0
6034 1 18.691491879952622 18.63191771169422 94.84910868904501 0 0 0
5784 1 20.596631424171953 18.86392079079179 92.9374979974516 0 0 0
923 1 23.319063583546797 14.911613147725232 99.39216456682466 0 0 -1
665 1 20.84747760701051 17.051441384756227 -0.9484679596353328 0 0 0
6006 1 22.752009739289054 14.813127603755065 95.15159187139786 0 0 0
6008 1 20.94141627059053 15.189654356607555 97.62064182430855 0 0 0
6012 1 25.277566482240275 14.878312199687716 97.23919552635807 0 0 0
6037 1 20.98596094290405 17.269898043178475 95.52766024627361 0 0 0
6039 1 23.24270711971456 17.05355448323284 97.49317963760029 0 0 0
6040 1 20.98582195654418 19.25274556666512 96.89123836874667 0 0 0
6041 1 24.963927445928448 16.582511445599433 95.28371228776632 0 0 0
6044 1 25.54443801697133 19.273921308703436 96.87039080355262 0 0 0
6038 1 23.158631233911834 19.17829053066845 95.28113092374268 0 0 0
5760 1 29.734057709177026 14.848423941528369 93.49376261919177 0 0 0
155 1 32.003426543426265 19.067133204844215 98.77802723957303 0 0 -1
6043 1 27.456187657253803 17.10868426627977 96.60705716753229 0 0 0
6010 1 27.67566090617186 14.865352799515474 95.07205757071777 0 0 0
6014 1 31.591721507284177 14.43032247418153 95.32620490181466 0 0 0
6016 1 29.396050793120395 14.921071889156858 97.06813360313666 0 0 0
6042 1 27.484252859786938 19.516185139587016 94.80883826651736 0 0 0
6045 1 29.683375786264833 16.927306554525 95.15543014801783 0 0 0
6046 1 31.67124370469843 18.726396486597586 95.14455696319146 0 0 0
6047 1 31.823344165052802 16.28336569358662 97.27156579416761 0 0 0
6048 1 29.737155859847434 18.73817288116393 97.20656080786273 0 0 0
194 1 4.6930195227613964 21.30926345987881 99.09031930105915 0 0 -1
200 1 2.4309344161160475 23.23242487303617 99.14829959258489 0 0 -1
199 1 4.418190753982385 25.43297666635866 99.3552595360735 0 0 -1
6049 1 0.46373066249098766 20.870734886313528 95.06521064631212 0 0 0
6051 1 2.8474146190104186 21.001575929949688 96.87241297073066 0 0 0
6050 1 2.402226540491546 23.422710639151504 94.58911169385316 0 0 0
6053 1 4.396411202125265 21.274272698581193 94.84453880054916 0 0 0
6056 1 4.459444598760586 23.37135638767594 97.15911027424124 0 0 0
6083 1 2.288463588978465 25.138549742416316 96.99730602743035 0 0 0
6085 1 4.665058207618714 24.943572082836596 95.30822985044112 0 0 0
6081 1 0.20937391642177022 25.00302475900371 94.93777671105072 0 0 0
6052 1 0.548213488504258 22.79853458307136 97.10399678732374 0 0 0
163 1 0.5698748213674121 20.97489591056021 99.11140122529763 0 0 -1
657 1 8.582991076890538 25.60315789970987 99.12495912148921 0 0 -1
5804 1 8.419031129048003 22.793525871812857 92.63813879218826 0 0 0
6087 1 6.79854356326958 25.219644154411856 96.73409709416129 0 0 0
674 1 6.288743225959859 23.461535721339242 99.3964705326632 0 0 -1
6054 1 6.738942876855955 22.77881793608351 94.85782367490474 0 0 0
6055 1 6.783871877703993 20.91695968930221 97.33502152354426 0 0 0
384 1 8.388409690527917 21.558487939529424 99.27467476809852 1 0 -1
6057 1 8.890407497137305 20.97098941215855 94.97636923064454 0 0 0
6058 1 10.425349482428812 22.89191047721478 94.95996466489316 0 0 0
6059 1 10.59042326027563 21.392900264710153 97.06630817786528 0 0 0
6060 1 8.656767045329772 23.680930326332085 97.21390560475697 0 0 0
6089 1 8.923856481471258 25.384311587695443 94.90867690431395 0 0 0
6091 1 10.676740710289142 25.62838236489896 96.94733184227914 0 0 0
6061 1 12.834845664956404 20.69205355200191 94.78458348738894 0 0 0
6093 1 13.00141988748824 25.233806606335868 94.99296759688232 0 0 0
5808 1 13.418236675399706 22.99218129835416 92.8644721988486 0 0 0
5839 1 15.337154225104413 25.2650939729282 93.05759636297554 0 0 0
6064 1 12.759717253897847 23.28346151197349 96.55684529195281 0 0 0
138 1 12.178547318839733 21.123452233327832 99.24451081260938 0 0 -1
178 1 16.837200563126636 25.332876074003746 99.02016656698592 0 0 -1
112 1 17.30403932529313 20.85637882855741 99.32075559851062 0 0 -1
6062 1 15.037198681808304 23.014958098835727 95.12364041487064 0 0 0
6063 1 14.62795659728597 21.031175270242873 97.19069409784251 0 0 0
6065 1 17.25919780758684 20.95733812676621 95.14292255843634 0 0 0
6068 1 17.167621889167012 22.81493157948734 97.330410045158 0 0 0
6095 1 14.80120371766548 25.39210127310666 97.3861062394077 0 0 0
6097 1 17.165560768343802 25.04328738439805 95.75673412770912 0 0 0
6067 1 19.491005846255675 21.328001808979252 97.59108063997901 0 0 0
6066 1 19.33771316550359 23.055762103362184 95.17317226909574 0 0 0
6099 1 19.41342813769401 25.265626743294185 96.99476294578011 0 0 0
5847 1 23.229709704972258 25.051672156451048 93.0472508532091 0 0 0
730 1 25.44540841206555 25.466518356904167 98.98503558460801 0 0 -1
153 1 23.58135964212307 23.594010539135272 -0.9439425051857455 0 0 0
6069 1 20.868409467418044 20.952363393288497 94.89018277662367 0 0 0
6070 1 23.161471257997622 23.27826925221878 94.89713984953048 0 0 0
6071 1 23.246668882875724 21.085813227154162 97.1848362343144 0 0 0
6072 1 21.41114708953902 23.188598807430843 97.33272284049578 0 0 0
6073 1 25.328188204045734 21.283572347959353 94.77133826062888 0 0 0
6076 1 25.40848997986289 23.366273943384883 97.03009280403104 0 0 0
6101 1 21.089692726111412 25.1817955625875 95.09530508676936 0 0 0
6103 1 23.404364491828222 25.106756564052017 96.95659716418398 0 0 0
6105 1 25.354896966685835 25.308007165011396 95.38710977096387 0 0 0
474 1 27.376541297053667 23.465472557050465 99.19438153502884 0 0 -1
5824 1 29.897757909488814 23.141851067574827 92.9391441964686 0 0 0
5855 1 31.7313547115928 24.95271212795896 92.87932720722105 0 0 0
5819 1 27.357551131557404 21.31125600151746 92.8815488512447 0 0 0
5823 1 31.695536523927572 20.578453283086215 92.84274485958194 0 0 0
132 1 31.790418559800784 23.113126654035135 99.06140482007324 -1 0 -1
385 1 29.61253764704372 20.680958644365464 99.2319294983787 -1 0 -1
6077 1 30.121709006407915 20.868995751725286 95.09651127498552 0 0 0
6107 1 27.82109742629937 25.3141468443413 97.25237254335612 0 0 0
6074 1 27.66632107003927 23.465358315475278 95.26324170293458 0 0 0
6075 1 27.512504760788612 20.875793593286534 97.40900553897448 0 0 0
6078 1 31.925900209706654 23.11275632676133 95.10618111024942 0 0 0
6079 1 31.665136189535882 21.01132490974988 97.22750818243333 0 0 0
6080 1 29.44666230943291 22.791816441542956 97.14009265837915 0 0 0
6109 1 29.690193825778135 25.194655653463936 94.70612577253463 0 0 0
6111 1 31.284647611418904 25.339783766197616 96.81356549077135 0 0 0
5863 1 6.365423133668521 29.441291237470974 92.97669280512977 0 0 0
230 1 2.0494863400484737 27.27450545157769 99.30671096166729 0 0 -1
257 1 0.25378493332379193 29.5710784141248 99.2859989329526 0 -1 -1
231 1 4.307579148072876 29.174350637478394 98.95375248675242 0 0 -1
6082 1 2.1654360491244837 27.303968367763886 95.1260306591265 0 0 0
6088 1 4.417244385090189 27.00216052434274 96.98618470479707 0 0 0
6084 1 0.22577468995336994 27.076395694093424 97.26182450543311 0 0 0
6114 1 2.149284251629224 31.39741489673424 95.07344198048925 0 0 0
6115 1 2.3148804798707223 29.343540373906574 97.18251373903992 0 0 0
6117 1 4.326183384924581 29.474413368333675 95.06468241076851 0 0 0
6120 1 4.35036446258154 31.377521498089905 96.86415937996945 0 0 0
6113 1 -0.18188606804851812 29.176757366299082 95.3663282361972 0 0 0
6116 1 0.48972070549369495 31.570937495712453 97.47847787171476 0 0 0
6086 1 6.4699962534752355 27.502199751369275 95.26887653747396 0 0 0
5836 1 8.851211030512454 27.598127107270898 93.0042385178143 0 0 0
5840 1 12.973299370174468 26.998920150295636 93.02976918411058 0 0 0
5868 1 8.451303425734777 31.457666427826684 92.51929100577699 0 0 0
5867 1 10.810965369649848 29.18252927790384 92.68574068609183 0 0 0
202 1 10.654572604769324 31.353051830807853 99.25931446073079 0 0 -1
429 1 5.982621488666483 31.460092719474947 99.222251517997 0 0 -1
6118 1 6.270529455089379 31.38957823348643 94.97689049291345 0 0 0
6119 1 6.255121783951652 29.56958223713082 96.79770609062773 0 0 0
6092 1 8.74191209041368 27.80234131093649 96.70345134476953 0 0 0
6090 1 10.913004547934653 27.162378394359905 94.6179706669546 0 0 0
6121 1 8.56289952402413 29.61550208190177 94.57218596617491 0 0 0
6122 1 10.749790948024625 31.525023908637017 95.19265479652236 0 0 0
6123 1 10.892611012154681 29.644921452861304 96.72341980406198 0 0 0
6124 1 8.524899734469447 31.570428183825317 97.31236652212976 0 0 0
6096 1 13.057979807112195 27.444680589451433 96.96583110158598 0 0 0
6128 1 12.823034354377354 31.60859186876842 97.14189142608312 0 0 0
5844 1 17.011273399951016 27.586540932000837 93.53069141615121 0 0 0
5903 1 14.581578785974848 0.38226884982695536 97.25345137387124 0 0 0
6125 1 13.181934468861867 29.658890315273403 94.62277523152378 0 0 0
174 1 14.683963765059861 27.51519431330717 99.04718385328806 0 0 -1
234 1 15.131802761207215 31.745451687783824 99.17997596461382 0 0 -1
242 1 19.20600657018395 32.081170292575784 99.06462213825402 0 0 -1
210 1 19.418711464348522 27.101717196746918 99.15547576332011 0 0 -1
6100 1 16.63518538673923 27.668910902329376 97.26242167276486 0 0 0
6094 1 14.853564770587356 27.36842761012697 94.9805460079306 0 0 0
6126 1 14.944431783865914 31.744652385048056 94.920231401387 0 0 0
6127 1 14.490327554630312 29.605441301938647 96.95893665070842 0 0 0
6129 1 16.898563514832702 29.55956699509919 95.32809734783844 0 0 0
6132 1 16.7711188682855 31.725529325387793 97.15613579837543 0 0 0
6131 1 19.087478540381454 29.538287692150625 97.6689451952652 0 0 0
6130 1 18.938222701641795 31.437953211904812 95.21795817955866 0 0 0
6098 1 18.937822862962875 27.426992364736275 96.07381571349336 0 0 0
279 1 21.224751474693544 0.5428326980991247 99.0947882277648 0 0 -1
754 1 21.188270983259283 29.694740096163954 99.26069659240332 0 0 -1
245 1 23.45661257458102 27.641702077381886 99.17935345116203 0 0 -1
18 1 25.121341543167258 29.612238894561496 99.35724221514297 0 -1 -1
6102 1 23.343240265073337 27.282385324029235 95.15708879580315 0 0 0
6108 1 25.716048335002096 27.31204380746875 97.26655069964929 0 0 0
6104 1 21.517324435556695 27.177335739921595 97.23047013464578 0 0 0
6133 1 21.136548815693903 29.718532999796075 94.83975565077361 0 0 0
6134 1 23.145762159614446 31.37874074727849 94.94248095230525 0 0 0
6135 1 23.264043247582638 29.79844822479003 97.02021249862455 0 0 0
6136 1 20.931611685072227 31.767151760183612 96.94221812131721 0 0 0
6137 1 25.557554878762367 29.39420588029908 95.37079823453908 0 0 0
6140 1 25.49425128374936 31.705209114882706 97.27414552822091 0 0 0
225 1 31.787655163817533 31.7204052690867 99.33113933274792 -1 0 -1
5856 1 29.858180256555006 26.972847215371353 93.0923681196681 0 0 0
765 1 29.161967670518226 29.3256418222524 99.26447365788817 0 0 -1
484 1 31.396520374352466 27.578705337035093 99.4082160989947 -1 0 -1
31 1 27.210536201902986 31.685923630098312 99.17428766585323 0 -1 -1
246 1 27.380364617537435 27.516961542367543 99.10663463913733 0 0 -1
6110 1 31.56883713919445 27.370911149578106 95.30594983829938 0 0 0
6112 1 29.494368382236935 27.347119453695065 97.38550621654184 0 0 0
6106 1 27.50021328337748 27.32051687857472 95.19656611928207 0 0 0
6138 1 27.44182782704751 31.488372840306774 95.21292634140656 0 0 0
6139 1 27.42838782633964 29.993364732867626 97.3877308208295 0 0 0
6141 1 29.40770687168728 29.369567456836542 95.27765854441294 0 0 0
6142 1 31.434893845776287 31.479291101654557 95.08243741788957 0 0 0
6143 1 31.51036170967225 29.437259532388957 97.20458826361407 0 0 0
6144 1 29.808992232286613 31.427433669859973 97.40623795626645 0 0 0

Velocities

6 0.5024929937581186 5.08122742430065 -1.9475046365625195
36 0.6809107363861 -0.8861131491194114 -1.1475839078830337
505 -4.379424173560082 -0.37154762355812926 2.8610509488767972
542 0.9956002743334783 0.8721116951656604 0.8790401212393253
91 1.5397740162266458 -1.1383016137205417 3.0239363798755625
228 -3.8267212045182606 0.14765824319646398 -8.651201979220414
39 -3.318768092106874 0.2865426451148477 -4.353930608762423
1036 -3.062090195863224 -13.080334080090992 4.009871658719023
1014 5.916973627716589 5.315394437901576 1.5993552462167016
1270 -3.4721114217522784 5.910281689419175 0.7309186666527794
800 4.758891032925489 -1.169275489674228 1.9599814554217156
73 4.114419402999061 8.3816854081939 5.236378577581823
350 -3.7139251886589477 3.4970465503188826 -1.5572839265902456
904 1.1959603518801551 1.183067419534011 8.688365600211613
2 -2.8206676476535555 0.7972505108118825 4.010773370418607
752 4.640034780172243 3.268140881800525 7.118041101340808
900 3.6366591745904495 3.480868256324223 -2.9618030905811312
329 -2.7298624180165842 -0.7196560612983631 7.378829717817259
359 -3.447097635455156 -5.2762222465535125 3.6355153411605015
8 -2.3075082646044414 -0.18407160250497612 -0.581663953453501
290 3.531805353664134 -0.9067555368151503 -2.7531748941217704
44 9.875261037176195 -2.792244627721478 5.129135605585697
1003 -1.358535308255652 -2.005875570802121 -4.079812464432318
464 3.9894386103073254 4.989725725621686 -3.464439923859202
236 -2.0911968830130654 -4.253935771572913 0.03377641142566549
238 3.687446169693531 3.834822319199405 6.639131783937747
813 3.647113186073954 -7.800225384926985 -4.052570527798157
820 -7.929812948567802 -0.939818578638501 4.1404854816498915
552 -7.755181307552645 3.43883031440114 1.7001552323518914
493 -3.7764838332451225 0.9915812050025313 -1.8268069156339433
24 -0.5856008343464086 5.31488698504123 0.23847557990023485
172 -2.3728860128544365 1.7147994887802607 -1.614477363491528
280 1.7563811040620858 10.646276541146463 -1.8796464986858736
490 -0.4560677962157902 3.018396524334029 4.273971551540104
215 -4.671072819829723 -5.370708506025317 5.843329849519493
672 7.165373626614715 3.5887481059839472 4.886969222971933
732 -7.293796989651179 -8.653198041604998 4.688644816223981
20 -0.3453829001547328 -4.401085124838744 1.9692549517424311
311 -1.6138089409352503 -2.2462034163551197 1.2945694397523775
749 3.454320127762945 -5.7351736366936406 -2.5348086449570637
313 -0.15473547857991973 -1.9816282421243834 -3.4941512130072843
817 2.6505032768558445 3.2775199308200125 4.6785229440228315
203 6.051484511232226 3.4952870996714003 -7.576947191030993
766 1.1961656193429493 -1.1647916523980417 0.9352705827275519
503 -1.0054323545545494 1.9395662615270364 -3.0529449243484628
71 7.361646547505117 0.994983524321501 1.0562022327916583
791 -1.3704213179829747 -2.989908722328745 1.0541224422639057
506 -2.7937661239953027 4.627785415682011 0.47193873007197346
292 -5.234497647585004 -0.2060396857572766 0.5599082727218353
449 -3.604946977587842 1.511597250626699 3.4663662800510697
21 9.664470781309811 3.815239275729481 -5.0231440382394394
566 2.436199213224564 -1.0832634040032176 5.489973196238927
57 0.44247099331279627 3.6355203140318495 -1.9072250034851548
27 -2.486528783785223 4.753699360588913 0.6485615053191071
807 2.0368321449449316 2.2651503295850217 2.595586112176842
768 -2.004974131786189 7.144484009930802 1.6565932744841931
440 4.173840458378952 1.6039822082993263 2.3816244512571054
554 0.5236442505188633 3.1769627810727217 -4.359017046392238
478 0.053664118995432414 0.5758446365879567 7.017007801912227
1299 1.3545693676521973 0.38332722524338747 -7.9725652835930685
540 -5.049837340488184 0.17674681446404525 5.031923684425104
1052 1.6085264511792288 2.0118450507555554 -2.3469756482598383
349 -2.019516254005854 -7.613203293860668 -1.673837277931302
84 -5.043572686691322 -7.38946536564094 2.632850887832114
110 4.155011848121875 0.49281586415092604 -3.389519219776824
22 -3.4572131522684915 -2.8805010045231985 -1.1187682409387174
573 -4.720146989372142 -8.369047312843666 2.6764180239164084
515 6.534458918498839 -2.6474803580216695 5.6082417824190065
286 1.6182424314901742 3.2807968523285447 -1.8036176889320163
291 6.22945469672966 -0.6456925187053013 5.876634943550461
510 -6.2055264280539335 3.6825551076209164 5.7020356545147965
62 7.307916676067288 1.7427547087573885 -0.401197938345877
233 3.202300075064476 -0.7736237073489752 3.688139401747182
507 0.596365661923835 7.22347808441998 6.428638289754927
247 -2.7254641780284006 -1.7298718211023698 6.115920991843786
893 0.34887565078411403 1.5282847268013984 0.720528645148954
562 -2.824297719022097 -2.013704406036478 8.071493301675233
72 2.9779305960338434 0.5937683045364193 -4.534646028680884
508 6.241576664537868 7.913745124042025 -13.778151767479581
264 -7.268469604408601 1.398906512204368 2.7635604494713544
258 6.11822458920017 2.1868683613666446 -6.702958242994487
543 7.374342672692032 7.53708057394552 -2.58504171558906
486 -4.331918803964304 -6.230012153760098 1.110805558305205
615 -5.493682977506277 1.1470587744365714 -3.2345226886545673
604 -1.3713208858481936 7.479399340640705 -6.312030200786652
548 9.014247473673464 -2.5336053502006943 -0.6476491389692839
131 2.7748097903505973 -5.785033456892247 -5.113883792535213
612 -3.1290570633807797 4.378821547519593 -4.312912291393826
858 -5.242970929108606 -4.639324450014956 3.538651317597343
1092 5.967654729661822 -3.5310804413512193 -3.419671388613485
378 2.9796024415287508 3.5790308925220686 2.2092706476457726
709 -1.4860184691816647 -2.0848771030780733 -9.149261844839392
875 -10.52925975089034 6.675399908944584 -6.287691156374112
869 -0.9733149034791456 -4.585270103332682 7.004589027909677
37 -0.1474317594074624 2.6966878132644654 -5.801681085434785
666 6.1004837894316255 -2.787100498841895 -4.944395147501932
897 3.781340706081999 -5.594072472418557 5.162324090969238
94 -0.011532489514848358 -6.59008699095979 1.062436028162005
38 -1.1710724566630046 2.186605623851886 -0.6822798423318972
299 3.293118546655822 4.176416158744782 3.338362640347153
811 11.608479338043423 4.389628574751342 5.0951153237499245
58 3.41085497630429 2.323544224757034 -6.394938003392779
667 -2.3985654904946685 5.066293907232335 5.201486669307054
636 -2.810532464261067 -1.5834571238121935 0.009849641650759342
561 -5.5332120912027305 2.377474190507683 -5.698389620619064
67 -3.6368837688511357 -0.5194243852536949 -1.9786388598737332
553 -1.4799276285603093 -8.411581576978923 6.506982092735413
530 6.5208852164700035 1.215634029436585 -12.55653505147657
870 -0.3127204692417236 -0.9569133286008485 -0.19444840639657415
1297 1.410725967461785 -1.660187776322553 3.600362103414207
556 1.3498116191661391 3.8006293479548257 1.5447146701675742
547 3.8156924999275375 -2.6095642665964096 -3.6750020032663304
278 2.951735403289727 -0.14698544136449065 4.148780553512384
102 4.884776725330695 -2.451981371866704 0.6751086703651078
780 1.3315995525591326 1.1142537864820274 5.421449541018247
746 1.311927874438121 4.603951156367607 7.049204838032842
269 -1.1276560614053581 3.849023038972445 -3.6193346407107083
108 -0.3510070107008597 0.4100958350070892 -5.233664219226357
77 -10.775735549058304 -3.9534074491851605 -7.241105330416203
300 -7.824683481582206 4.082642563517146 5.153075007809148
504 -3.9122962321872263 5.356574340270701 -3.7750496588037614
377 -0.852305429984663 -1.4225463731847408 -1.3429338694428135
11 -0.11724155245950921 4.494385282241145 2.1457166096894076
748 -1.995223088779452 7.744807798492103 -1.6061901953610433
613 2.4627894154677845 -0.3482405723308329 3.7601586767264013
85 0.281296331881267 2.5199082609356314 4.033542328346521
78 4.301234263551756 2.6689234622191726 2.989504256128154
409 -4.403585302320709 0.5141739964941654 -6.4712527083739015
442 1.5769555148121228 8.469276683070639 0.816468245857989
288 -3.1537449346296347 10.187007545906074 -1.5863533742952047
75 -8.675280260848455 -2.296118893615145 -0.29059947693622173
533 -6.239864030259751 2.4447499503305363 -3.870081352276964
462 0.3407706324361192 -1.1646035898078853 4.077762649488317
1269 2.1141660061671703 -4.531729903157763 -0.40025308668592097
89 -3.2721511171871245 -2.3556021129760687 8.251756704250162
316 -5.500695602538996 0.2249189999455783 2.773093673060544
663 -6.604091103083922 3.4811280292974116 5.263567553153076
603 -4.62057516295537 3.016755015682935 -3.0572603481022367
346 -0.3257627522082877 -3.1899221682646726 -1.5268549917480752
34 -5.870276731527768 2.9774143480194333 -2.2373176927906635
1105 -3.2295543251898176 5.945711518780214 -9.223249642727572
310 -1.9382730412742186 -0.9448276487135919 -0.282002036006116
335 1.7702808823420733 -4.38301662708017 -4.0124852021306845
401 2.5333913078842634 3.093058339120698 -0.7038550272196271
314 2.448179860797489 7.337584897598396 -8.90198818509318
563 -5.315200304510011 1.228934134601016 -4.13179273396383
415 -3.128363183554387 6.319088382660118 6.061026960303683
118 -3.0220096424584253 -3.681747110330147 2.5050936254243252
633 -0.6858857646269072 12.514741090934558 2.576539693826922
868 -1.1621284892955916 3.6511865663209364 -2.0211024030525766
1142 -3.836137288158813 0.6333691599386855 4.629621129306552
857 -3.3612420527073965 -7.675599958969651 -1.5350915733045372
129 4.229855284230892 -7.6285354249841655 -2.5786642758930682
630 -1.6711156577880377 -0.4479562400539233 11.265564168111439
546 1.330643730494239 4.832374839815993 11.308910658239858
693 2.8096334515149795 2.370356271824373 -5.450827459195722
411 2.9031232171749974 3.760657430457534 3.438883916388459
1209 -4.68058024906944 -1.2904270789354342 1.3437916340250238
602 1.2213098285643624 0.6878857828840569 3.5390859324584514
328 -4.363069417750585 4.037263856477168 -2.0679277135423253
117 9.002322444785383 -4.134080289743863 -12.126321991606195
888 3.8433419281143637 2.704965287870924 -5.273471814255691
575 2.4835734661402897 -1.5952422819890846 -1.2788242504318568
572 1.1072665698153221 7.009583320521669 -0.9767978075665356
357 5.489761322483484 -1.8033922571672778 2.333226183771467
167 -1.5691187950189975 -6.483390479717398 0.11384323089678025
701 -4.752308100748275 6.215709187234194 -7.319769364729905
201 -3.028476161868249 1.5865585914458746 -1.2468382086345555
139 -0.4293344976017475 -0.6466546187404956 -7.16092185052018
159 4.7193259936627365 8.848811526800905 -1.0684570229289694
695 11.78570796806372 -3.5020614633175278 1.6657268213935263
68 -3.2774009047395585 5.046172053833742 -2.391542096147975
272 1.454524956499923 -5.176833011337969 -7.42226467944781
937 6.333560506220037 0.2613849351030957 2.0438310719763546
1025 7.909355968331146 -0.28937482318266605 -0.24591186718741637
1218 -4.304857695483429 5.369223932866099 4.222374939771332
1484 -10.538689571879951 7.208995997460713 -0.3271037740461857
99 14.750293709181875 2.47083993843837 -2.0145792466398005
871 -2.51776177962187 5.427569573053265 5.169813245686106
682 -4.064179293587774 -7.506586773255988 9.1425087556322
1126 -7.000388183817454 0.48243747782424196 6.112757457416684
106 -3.5646884290743257 -0.5145533375027571 -2.4229434787235244
298 1.1529445227094235 1.330171053555987 1.769002214642771
581 2.7130229329775726 -3.393183243865257 -6.802781434521142
392 9.606676065658476 -1.9284368983639824 0.933492012795711
686 1.4800122070959563 -2.267261177704647 -5.148491204976187
788 5.714801439275077 -2.7367708383415446 4.391077868913901
423 2.942444120660316 0.7113926345727764 1.8386101990086454
905 4.535011300715054 -7.172140646946377 -1.9446821383372381
171 -0.9368041629213352 2.4673948297332817 0.32288102954991615
342 3.4064633296228695 0.5207541832795369 -9.64109651259088
489 1.0134063267810582 -3.0119222752477133 1.7015834829118999
133 -5.359091738944922 -2.363552103768639 7.024669470723826
144 -1.043047105290947 3.3496649062563866 -2.3445131447345
661 2.8218115146361953 0.6024381062716962 -1.1441648687966002
66 6.117980340985325 -2.1036140087285626 -8.362598398015972
109 0.9826611545884095 1.1819091855088957 -2.211592602862603
502 3.025612682018625 3.554296190073428 -2.521092288713556
471 3.302765734135234 4.35310050461047 0.1644209496643338
1230 -4.684308812962261 -6.482720296663231 -0.18984468143148991
590 0.3091319111385142 -0.7095245549781383 -0.5843116336950713
79 -0.798680296061084 7.146235563052443 1.1317987008106078
173 -1.6640847652907473 -1.6941080470707852 7.019495442483132
394 -0.8129583598662424 -0.7209267695620233 -10.63430343578122
938 -2.4199949477288953 -6.361412360926694 -2.7704528794274323
1132 7.259487427552602 -0.8720191867715967 1.0154102493089838
404 -8.288959040376323 -4.878594797816172 -2.6942873452670595
407 5.92023982647724 6.687060761803372 2.051380473048957
88 -10.775991086610206 -2.356284933729355 0.38274032067274244
152 -1.4504159402101096 -1.534831361678545 -0.2877708236120213
187 -8.341729614341643 1.7245835909551592 -2.9441486795966867
668 0.5890222803574556 2.197731996323937 -2.4651807085406277
698 -1.9054965769628633 -1.2907761249639305 -4.742998483687807
862 -4.159715695701682 -4.299841663899865 -3.324625538075789
959 -6.912048860459974 -1.1804754465158525 0.9895507675518382
537 -7.487969303676627 2.482494034039277 -3.464885936545997
924 -4.445860884357007 -5.0476072228740785 -4.247579099819493
1437 2.6618331798565555 2.9947231432101553 0.8899111319472394
1414 -3.632790128040788 1.482307724788538 -5.125642652856584
978 -1.9981996099850845 2.1838115546325048 6.391963303527491
192 -1.4462674668326316 -2.020765427456514 -4.142025018326107
123 4.29833060740787 3.410062421949423 -7.124891792919663
149 -0.4900146641822837 7.612135443288418 0.20875746581409588
1573 5.7706719012341665 3.292603496087734 1.03258980226527
306 -2.0868779389259937 7.670545052289764 2.234769432926491
367 2.058482431686926 -1.195078370251638 1.2631455508944212
160 -2.5362785917537125 -0.6677763977739672 6.029172451979288
671 -5.393668026581427 -4.072015129304431 -2.0774082940081113
1181 2.5961108489003597 -2.7735437671412866 -4.183966312904621
1152 -0.0677650835177109 3.7881870935622253 -2.8888510710036965
189 -4.058180246343076 0.20866178042584266 4.137076366189649
382 3.8565272225999943 1.370273307800348 -0.862773906432677
419 -0.22549702748061615 -3.955455563680875 4.070829630429095
936 0.7522181250594827 2.3463557728071267 -0.2376769990493666
1602 -0.9941973636291664 0.9120825051623556 -0.5455320337947682
223 -1.7113948228000742 3.276984534307968 7.37361597903799
157 -2.1688361982183855 6.159935913050579 1.7724702773854333
644 4.993464344344989 -4.063570918390995 1.6494395624425509
379 -1.8420978036225504 1.58069729185529 3.0959210128641335
124 -4.482917175721835 0.20705538188428263 -2.423157176697928
243 3.0229651661846457 7.507373856292467 -0.5516864600046806
926 -0.4362684078525434 -2.300019931814529 4.4944419304268575
168 -2.1172782299069275 3.5964370888085933 2.5837278793426024
369 -4.509283651462316 1.8295960778445435 3.9757242369834085
198 -1.1245197532404785 2.9441663122114106 -2.9094767887820896
770 -4.861217463703723 -1.5008802779346326 -5.661469993169743
745 1.3711078420452458 -4.859335544849391 -5.317132360907354
165 1.2247773851361419 0.7675224225962887 1.6562228895524163
358 -1.5569834523548804 -3.7185543568620973 5.329755240937537
128 0.15205891834552066 1.3885050954555453 7.015011251978926
626 5.613257005328103 -8.194379676756316 -0.840943109946702
204 -1.5454439439516543 -1.0064653075400558 -0.6989219579178336
4 -4.909570404332549 -2.986798304758113 0.41152230924042144
700 0.8759863474408723 -0.6443862545921227 8.657835588063548
455 3.228929624816841 -3.0279327355279557 -7.36635444757222
479 0.558954146023672 -4.191941800703847 -6.417828645852053
387 -3.5263583322312497 -0.6178919234105477 -7.885818785555003
418 1.8265746956072302 -0.7789909942762696 4.151422231492217
425 1.759823303932999 -6.01262693376367 -5.37022538276226
685 3.3611194155983584 3.090555646446607 -1.8835621288251476
239 -6.643958293954096 -1.7103603169600714 1.173713251067349
169 -3.572251401238195 4.4202656347410745 3.0644065798816142
205 3.1565832543948726 -0.3862447517657767 10.752158924798353
13 2.3745659626695037 -12.109058459617444 -1.944367892610204
430 4.716762260927643 5.829536114908499 -5.3196407509529395
56 -2.7109937349596165 0.618159272368473 -6.2110280265949305
1698 5.404762852374039 -8.160472580305974 4.71064381171607
689 8.091592166399032 -1.313904448236335 -8.657051690140385
302 2.1421989523560647 -0.6854507848966621 9.506690827038234
1257 -2.1388332791098645 -2.557043251563444 0.3966417112862754
80 1.4051714962313548 -2.750995106204079 2.2719425387381995
170 -10.104577964438189 -14.702373835274445 -1.7693514212239871
262 -0.011579537829180241 2.3616385123799124 0.33373956200795724
135 -4.704224170710579 2.5108632133729993 3.254674275813448
373 -5.518835718210093 3.8819201379458397 -5.220987295605572
116 0.8471652463615258 -7.460822211260424 4.1965747662613335
435 2.31775803155222 2.9269258259245103 3.961347272664261
182 2.026335261655494 0.5533327657765866 1.7430550463249708
183 -2.8005207641592573 -0.8863793802890296 -3.2704667525098197
224 -0.2454684893340154 -0.9839244214460066 -7.060904965266243
412 1.9718607641236618 8.988269948850318 1.3662155421297053
114 0.4975052216074781 -0.1528911036047144 0.08951188554944796
366 0.0963852987446614 1.1288238800826136 2.528510784033381
617 -4.2323139717349925 -0.31802627758620156 -0.469125243137197
755 -5.3623370507840304 -0.1891747927915068 1.6519713283243278
206 -7.422954344674008 4.400442541358692 -6.228919859107227
218 -3.87995011198631 -0.5327434672822475 -2.9638600013631553
427 1.7166191269014126 -1.2757511581524652 9.36435013655201
177 2.499197556456858 -5.779055687428049 2.4784694209691396
514 -8.805195085964568 -2.7850346064595306 1.3808926939559625
143 2.3743128226274033 0.6023810293159374 3.561040898461377
441 -1.4267076192497599 -6.019569722015042 -0.038685780774471504
191 -0.688247462207504 0.5685254208879715 -2.0332328765287424
217 1.1654270801183677 -5.05493908356215 -6.21889711218943
469 2.4369799541028847 -5.335225558015914 -3.7304907665448197
920 2.5751504671360967 -0.7120032195141573 8.159584260434022
501 -2.181545000769047 5.273749682109934 -8.069621135842608
675 0.4016002407837157 -3.15035188520539 1.1073292123200806
742 -2.1873485508501296 1.4713363075075683 -3.091586622571766
659 -0.5791742006697674 1.4375005202782702 -0.24777245148676563
903 6.099062807508492 0.34471847218698953 -6.49143389935331
911 -2.1563352951620884 -2.426339556918415 2.8147432319766414
638 -1.8841746970479134 -4.241000278094661 -4.689228003595005
181 7.855788376973521 -0.5582564662319036 -0.19089955630730696
473 5.9059793859602925 0.5430712611488862 -4.785433262532091
249 1.1314417621402995 3.8935054719403994 -3.6361806544487396
221 2.9518103106532863 7.653284248188753 4.402802784689436
453 -2.757691585168294 1.7449049242950303 5.514439948933915
161 2.458956696539428 5.72329542513805 3.727351238637783
154 0.1509777675763636 -0.8802165776646176 0.9031144160287021
150 -0.9312138773578584 -3.6415634837308497 -2.8761819252963536
470 -0.04154846747134294 -2.641027843647925 9.023664708979824
450 -0.6748714921728378 -6.846322430894461 4.551630910315778
890 -0.26950723087738376 0.8658163344881213 7.266166632618479
963 -4.196187257188403 4.394480852189167 -3.752645496332421
1202 1.1354246471377527 -0.5268379422486833 1.5982014910136142
980 5.979638629948092 8.763764094005724 -5.119563411670584
448 5.99155445635702 5.587611563028758 1.3799653515436807
445 3.2406391490642217 -3.8395998659699266 -6.259053011927237
222 0.524831892160593 5.683089201156407 -2.318118096576752
1214 -2.171070095765741 5.680214639535269 0.21248786407902687
267 -0.9245545788577978 3.0239276294828548 -2.3479395108920125
219 -3.731880715908356 2.5351876837099123 3.0768801580414387
446 3.784800626404659 8.270024926157516 5.3113405806660205
488 -1.7576626149340124 -0.5607177438437612 2.242844419947202
428 2.5271360902439346 0.7807646412433651 -0.6708025860788296
250 1.3902593881809615 1.2176035605052389 -3.623778639274874
737 8.00421265000604 -4.6019946813067625 3.5849187923519006
232 10.28638302465817 6.174312190136194 -5.634201089225688
496 -1.1887866637492612 5.570711739208842 2.7004112468074295
29 -4.75738168602942 -7.541995859833684 -2.761148590045241
255 -2.7418083812756127 3.435418733082619 -1.530504357614154
1189 4.270269877450821 10.566680611427577 0.5726439949313888
463 2.530462827416945 0.5617611969053982 2.5772575350158977
1474 -1.7387849803054698 -0.3706341104493244 -5.823789967782371
252 0.15084127580222795 -4.491239936548369 -0.5653938888980434
492 2.8644892088144913 0.037072783051460306 -4.796395507782337
136 -1.8092612398210628 -0.189910474788297 0.05757585843671919
452 4.373809714010021 0.5481746535954908 -0.46657229975145953
226 -4.217238475233124 -0.01648581637995343 6.337034883186398
380 0.831798635396146 1.0342815155883254 4.700131969859652
454 6.37929200903424 3.5562414606633554 -3.472960531389891
293 -2.6399724795450474 3.799135712040175 5.224943396612455
458 -3.2551476273820756 -3.247494833501214 5.532972555693362
331 -5.009946799021331 -2.333243496407381 2.5956837469226066
343 -0.06213831430655606 -0.8321119587074821 11.529048179144793
497 -2.336188104749023 -1.033375147618421 1.484935321708363
297 0.4017920674513388 -2.247492151290206 -5.975949613989266
393 -0.990513121150648 -1.5534397312152468 5.824489599697924
611 2.843842612752078 -7.924271001834564 -5.9562435869829855
883 -3.77385300835598 8.668858019340965 -0.06678733251820251
676 -0.9592619314458662 2.4662707368440513 -9.888016436464703
908 5.43203238060769 -2.1696783768578696 -2.5290451420523783
526 1.6274445928453478 1.1009836062595593 3.170227116932432
491 -3.50673140792985 1.1152522654789623 -1.0097126166767116
240 2.752949348880637 4.087231254681419 -0.4059181408590958
229 -12.456561933644753 -0.08008455977435795 -3.249585283141612
259 -1.2954501455150231 3.595263726004469 4.937361397945396
12 13.267740169925021 2.8776041489250344 -3.716236645156036
522 -2.83708406676197 1.4161244893568932 -7.93173137674307
274 5.000494233879618 4.2686344254581 2.638105016706057
753 -1.8233920274221482 4.204138033095072 8.705696303272601
41 -5.377255654767388 3.1185374305134794 -1.8319917459000266
495 -5.91574973949858 5.464885000837549 -8.319020143207426
942 4.852556464709671 1.1523585616569185 -4.451833246994897
751 -2.053390220455522 -4.894120160285715 -3.3135151538112413
28 -2.9903980113521293 -0.6039923229406389 -5.8997870252830715
213 -4.042718481853194 -2.336743235201988 3.2378805445192076
251 5.359558981569627 -10.96595829780707 -1.268428757435056
399 -1.4745777403727705 3.406465993112118 -6.6853474679502405
241 -1.196811353979616 6.753947984296031 -3.8971013057988197
284 4.02715940176797 3.500251948990924 -0.8467367218197
481 2.5660623427469718 4.007352097517063 5.312545949382114
466 -2.3136539674820127 -1.9091161867511819 -3.9420616301324243
898 6.481554999387924 -1.3127860090869434 -4.9989049496922
248 -6.636138516961102 8.824310183886837 -5.491453695970244
417 0.5248054794303139 0.6277129700834285 -2.5459168998239154
193 5.496720597435312 -0.47247407826112564 2.0185975140809895
209 6.491209383106361 -0.954866861492286 0.5989011371019243
571 3.1695863314288353 1.0785997106521177 -0.7701520968584445
658 -0.25340809612267723 2.530362703146313 -8.789282286204436
1015 -1.9241326712723505 -0.3560598192155234 6.881108773481981
17 -1.157743796353305 -2.0581244813296014 -3.938261268752766
443 -0.21208903184702316 8.253191460494277 -5.904598725426517
948 4.123037697007591 8.120582813527477 2.5024473180849363
281 3.34464615902503 -6.7907817797130265 2.9714568425905936
607 11.14421025582353 3.004241761491799 -7.256492741275992
158 0.5036198146142443 -3.1381291431361764 2.3437460192709785
253 4.713724742600758 7.856557047897744 -0.09626668497491984
957 -1.8270008848905457 4.47423765498731 -0.6907814021323373
196 -10.251339598508023 1.5711968422400633 -2.679434616994598
211 -1.9260683658345459 -5.842128800004293 3.3936082769945495
509 1.4463871248724078 -6.988983247792075 5.052116215852326
220 7.425986269910796 2.9349806382998436 6.328834688150237
54 1.0424908824022165 0.43208747629868344 8.992497369069454
285 4.830570356539055 2.4458777208641638 -9.622898906422616
802 1.7274696982275133 6.073682989807318 -3.2832240869028397
550 -1.2277435742641578 3.8428094068542924 -2.2631464555396925
1061 5.700379569574176 2.713012131886837 -3.9035211549826094
1200 -4.31850024540198 -2.939028793868969 3.4706192502965485
459 -2.1260315933163585 -2.5490223450112106 3.6517167434885134
620 0.38866963009759786 -2.1959487886429674 -0.4634298515224969
356 -3.1922237437132446 -1.131399551810599 1.7555950114420666
712 1.6896863193327554 6.306477876712801 3.430395882672499
970 8.975742363758801 -1.0668672382015607 -1.08241589767287
345 -1.892465074001723 6.602293054072588 0.27809695129342593
520 -0.32989154476980165 -2.7369631019020546 -5.629247401315691
992 -12.800484164865223 -5.224516523325751 3.026284716321896
1384 -1.259585266989802 6.370470129336645 -12.501712885848562
1273 -8.658989048616911 3.1527967605170053 6.067738939709062
1121 0.5157492259448302 -3.415886650454528 -0.8923145775321046
1264 -1.788463352157205 -6.237386167415131 -0.7928416003121311
1636 -6.050682887386625 -2.895713431619828 -3.8692765864827425
432 3.672760394055443 3.6024138899815665 4.746489767792345
606 -0.4811378549709909 -5.793034258045274 -2.6442332277869673
499 4.523053698566938 0.6494173554633172 -0.6899025747186799
130 8.73985226000289 -3.3213049764401554 0.2260210919889396
426 -3.1441001446764023 0.8754999781457777 -2.8356527238141633
525 1.4412322478089765 6.234909916080358 5.72567405503414
498 5.65990743822646 -7.110320114857827 5.703989435805079
887 6.240658246423818 -3.451536805407934 3.033965646986382
779 6.963302943855438 1.9214058552432187 -6.48883012363238
1563 -3.961832377790914 -1.838126757534353 -3.5847234054222827
713 -4.594118774115404 -0.5198057416568187 -1.8183216603637593
340 0.5684692927608601 -2.212709787129567 4.571705091473889
374 1.2940038911428893 -0.7277430001526627 -6.014736352239669
1089 1.3772497353369646 0.6453547195079994 4.672773841245145
930 4.494834784909612 4.053042002653327 -7.101457472007488
176 9.360941882803434 0.7873002623663361 -1.3812387116929103
1066 5.37945272099667 -7.356850158435975 5.085405402601868
1322 3.385204616438124 1.1672308098815538 -8.592719506674849
721 5.776825781412927 2.05546615276995 -3.995976027453605
850 4.180682721872498 0.5610092910814933 -2.4515057049632736
1611 3.645219361273992 -0.7061526911293369 -1.6719912338751441
1044 1.0871526752634328 -3.2701635061383048 -4.762767589914836
60 -0.5474182510620664 11.694958759071811 1.1192883527329498
352 -12.084848077729381 3.3212725512642227 -4.580422497274338
1587 -2.3182345703869616 4.57703981432268 -2.5454109553278554
444 0.6113839580537543 0.7569258244979168 1.5704233929629179
750 1.1896769442263084 5.9370397015257845 -2.1320406324021577
1274 -3.571981757121353 4.409069699891126 3.3571466000562826
63 -7.894128837406866 5.14924764989349 -8.323041754840755
1575 0.657588634876426 -1.953268320697322 2.430864875367049
1529 -3.5929616098319475 -2.4243895867600918 6.1176524254100135
549 3.2794120854182642 3.285889638022628 7.513700187327925
312 9.040626057688042 -2.1203621402518986 1.240963133500555
1701 2.499110543272919 -2.205457552944363 6.813804717317445
1401 1.771002673469567 -1.1375056036547027 -3.2955591216107187
725 -1.1153514411362697 -1.618950394768844 -0.8838649065837395
93 0.7468912727214547 2.3378015006563273 3.4300413588032233
1016 6.2541939976477785 3.070136518405415 -6.401875517562797
1311 -6.20284585724521 7.675778031305374 3.861565172166607
877 -3.7724108704462864 -5.839252725941006 3.133320253931014
895 -8.483994411194992 0.10439167129318716 -3.483828652122223
260 0.8346315087057808 -4.685978522363038 1.643171679355087
1008 1.0315867205800233 2.4738350557909787 1.4183697506443316
318 -1.230075287160373 -2.966371734456533 -3.7551646499030937
2064 3.1940654342363293 -8.039781062366064 1.6501757095463934
608 2.158017139193105 6.049989160858981 -1.734479959183661
619 2.9109203833417197 -6.894358626124253 1.548136403306393
164 -2.857607629076917 -3.1892169719732624 0.062336555674260566
2567 -2.209582450052611 -3.996518692759701 -3.0255294866162155
2173 3.9785857226326784 3.9837153229969573 6.159276285842026
864 4.584989833578555 -8.537603611284386 9.610624801905837
809 1.5057901746994986 1.6705910613254815 8.140744082336266
825 2.0229572435206453 12.73840270588163 -5.191406346088783
1237 -3.448456453768388 -3.52746196641885 6.531105280945925
10 5.833046523320194 -0.6492669161592981 -0.7088403495898389
652 -6.126100847155809 2.4279437697098194 -4.407850876269552
361 -0.3659227343797885 -4.158123810744004 5.515337561679667
720 1.731491046099651 -2.438054270029793 2.3913984026261295
792 -1.4568640519862137 0.6275614823292066 -2.4549435856100454
321 3.4371514893319195 -0.9163119435858993 -7.00117184527829
424 -1.9545371996681904 4.302560211179332 2.6891153073311016
991 -1.5140329532172645 5.681194545759823 -1.3083739449362506
1389 2.9006131741662164 -0.8094682731725371 -2.4160592239256475
33 -0.044798428389743544 0.3881490618240917 2.4663665633398693
87 -1.1231467687839256 10.435576029684421 -10.184142591559498
287 0.7883325546870844 2.1932334221065095 -4.444747905377321
790 -5.4800945359576465 4.660977593351546 6.413962403855755
1122 -3.207880108524818 -5.557907348001097 -4.138412281629678
625 0.6213183726593262 7.897911668940091 7.545749556312246
1234 3.639231143019885 -0.6389168264148775 3.4617911337387426
634 -9.863500291558333 -8.371859778826547 6.7248218241284174
637 -5.440104118968989 -2.1870045436052346 13.196817871993606
567 2.8118293004626174 4.020790631452459 6.008163613716883
40 0.4706400309334464 8.739254331128208 -6.765631071516413
1380 -3.5970037359416747 -0.7560497198208511 0.12727026535868663
395 2.8531102890387356 1.0067662706266982 -2.15453917296678
1213 -3.3450550464440516 -2.8992051096863154 1.397929478429194
610 -6.672320481668865 9.224349518263017 -1.8676974338474732
9 -2.8388933812511334 -0.9598728065660901 2.0997955132147257
578 2.666608817527584 1.8125924254386168 -10.866687087980639
1247 8.705628731547385 -7.967285604514123 -7.664340914668305
594 3.3163014322238813 -3.055407693929823 -5.537186210272546
1703 -0.4304402064940969 -4.550849437621102 -4.8815768217773
1101 4.464317337030224 -1.8571161151692692 -6.2740012292652105
2628 2.5805262988074893 2.475168609945805 5.363239104638778
268 -0.20196169108954526 0.508342997527896 3.4188813470367196
1084 -3.4039271565263793 4.901024316622423 2.4245955323649606
103 1.6866615745385123 0.12148751570814374 -0.02556631774285214
1330 2.6366529943855275 5.662404416112745 0.9687662241004361
580 5.186210677738812 2.3115176598905456 -5.108979913209038
7 4.928113653856209 3.04817026907673 0.5044624823791563
270 -7.136106679662699 -1.284228122488804 -4.450800694735933
1155 -6.037992474807433 1.5836044133316762 -1.5614669750781187
137 5.5020811546728146 -3.02619188589646 2.7407947878760504
516 -1.7393941546952578 5.654505867818669 -0.3304215268719296
596 -0.6947700236791061 -1.2346877307892836 0.4203030908477506
591 0.6300010462404658 9.554586268968482 11.671062874647445
1195 1.2970391432408748 1.4289728655339624 2.5484050550443813
1091 -6.951177404573401 3.7968386568578336 1.2241152806821705
1338 7.258903597898477 -4.332993598555536 -1.218887804595825
1067 0.235875059235906 -3.7808088329139937 -4.634850876263724
582 7.174051544107799 -1.964878346966731 0.6066825254879228
146 9.104877588177374 -7.190330052646082 0.8426155787217712
598 -0.9286876012332157 4.762902978165859 0.1700311644773028
1681 10.21158146353241 -0.3063180802102782 -2.716063148202018
141 -2.6684719110165953 -0.6776786778651631 -3.0602052317914272
597 3.3135225310208054 5.566093446543577 -9.199927995155534
915 1.3199796604242064 -2.228185128311673 -8.32250292017986
317 0.11063876499084162 -5.534091069996665 0.024194418390705165
557 2.08316320426052 -4.8744417955889565 -3.9607851192018244
1048 1.8147504955433926 -1.6008780544945125 -3.656440169706423
1579 -0.16669153105417425 4.106553376431478 4.580589512427781
744 -1.3773042208351962 2.2870490931373273 9.004577092053454
273 -0.9755180789389559 -0.6591322372639817 -6.28745162236967
1098 -1.2761779156505881 2.231546582440437 3.950021338348122
92 6.95535294443026 4.3467815315886575 13.982910565007591
527 2.5403818619394887 -0.3531030076750886 -1.3389971204980808
1344 1.1217234068476791 10.73165299438667 -1.4456790347281878
1163 -0.0752771608750296 2.396520682401387 0.017787773312323757
653 -2.7748518344580524 1.2358789223828155 -0.12245828940594342
1145 2.3346431694010437 2.837600418609339 -4.860144324388643
859 6.689207245069112 -1.9439692700059286 -1.4451098722834588
337 2.887888188076331 2.8892541048569518 7.624956780414477
616 3.654121984215041 3.0047817588153873 -4.049520303083379
451 0.635274831391864 1.293171645246755 -3.3815275841502994
949 0.21975942091074435 -0.4696144629529065 -2.2924440731730074
82 7.573125945163048 -0.847202788884807 1.8643090231181403
1977 0.4596063645735215 5.266478564105605 2.8628812792935205
764 2.5046728350326943 -3.0867999997943953 0.685979453990938
939 0.5482601012295085 2.5684131758363695 -4.667608986818605
1151 1.8302804050944994 8.716431087658405 0.5305330974688364
1049 1.8903189950122887 -1.2227756044382732 -1.2585272879939617
1910 2.1474680470493643 0.9197092652400329 -4.019759776824566
795 -0.8063326624333252 2.678349378107586 4.2747981399033135
998 -1.1158807792392649 -5.706095326030641 -3.6861414787765736
570 0.5771904813422645 -0.22831156078906728 -7.849214312719075
107 8.133814724820816 1.2132115707425088 0.6462060491790381
406 -2.5329925939466986 4.8709245551769325 2.962097099728706
42 10.63044217839199 -1.8295807861269477 3.8880375664802544
410 11.210517662993075 1.4748883351022006 -8.964261972832322
1024 -12.042379125939009 -1.5183755143006947 0.43045157410146406
307 6.206870420616394 0.001976196857688451 -2.7547001152155404
842 -5.550330234637238 6.962763288738655 7.407473674362377
477 2.974734477184184 -8.304083409036188 -0.16352523728474078
1310 -6.851002121532874 -4.667230606819767 -2.651523168476017
83 3.9892987025565736 -2.197064095043198 -10.429075571741826
681 0.052309560049976306 0.6017831415843117 -3.358154477589748
2875 -2.557715780283184 -2.191110553104857 1.0269796717391235
467 12.373977935684886 -0.6840497765153558 -1.3323388497170405
999 5.971924402211783 1.1088708663459859 1.1369479020099786
932 -7.437763333664435 3.797650008819646 -4.178940732718392
784 -0.07982030883031324 5.996208408452151 -4.526992036232076
814 1.549389971581995 4.643361012643174 -4.201733852760861
119 -0.8212539932908393 -3.7918289080713357 -0.042966126680130036
574 -0.6423537003733344 0.8378557364908088 1.1740448740819416
1217 -3.741069929046186 1.7281479248902072 8.755147281054292
687 -1.0379703004601293 6.056921146156548 9.316415740435156
1695 3.6042499240730925 -2.138760840578066 -9.310529845145227
403 -3.3049180919385934 -4.0859222518252025 1.9593484092096034
1405 -1.8958395871394638 -6.741907972114015 -3.5918291073241324
559 -1.7259241036810127 2.2904965590332154 2.461563682048387
216 5.1217739064227015 0.5390302468497087 -7.3536619000785794
643 -1.785474090556483 -2.529953975257008 -1.1459634518343884
360 -4.89190058824352 -1.977607513599918 0.11107415789471534
1378 -3.4913915629521948 6.09475792543153 2.336612761120096
583 6.112027738641066 5.497667138194353 -3.6408259597515236
1058 1.163343319378906 2.4230828991009714 -2.8815999525993026
826 -1.137768714251685 8.053314070758221 -0.1464392727396277
35 1.7458213684178 -1.4852344653213685 0.24940720076465064
145 4.721607585887586 2.4106656965385374 -6.190158052843811
347 -1.5726658998880318 5.803925855036217 -5.264826827960968
660 -3.688642028511974 -1.0547866467953988 -0.73786046041717
330 1.441180914051857 4.382360195446546 3.034658087473537
295 3.0152821013427276 -0.17003705378370543 7.270617940720575
647 -5.774402605974247 -0.05370674418594373 2.7635525785019635
398 -0.37379153349402233 -0.40986400289649016 -2.252605777983419
180 2.5967276303453843 -0.9066982120743419 2.282621606504876
1102 1.8290516703229753 -8.478694876955313 -2.6355318411488926
2189 0.4758972219172406 -2.8594629633534803 2.8416068052608496
584 -6.370854382275978 -2.2925141161124065 3.9726340437182524
973 6.671360854056369 2.5883068018565383 -1.5609841154422626
315 -3.1615888345359333 3.244640845911641 3.2036741409028804
148 5.129252825871608 -0.6859659497645466 2.2845969424891805
1450 2.4408957751899054 1.4027642496413448 0.9787036380042459
1248 3.3011871063917835 0.355422047419457 8.225311190715308
1109 3.7681037384216265 -8.097971490190416 -7.539049608689911
363 -8.80375152070469 7.577278589508048 -3.1371577311700563
362 8.331980493952866 -1.8293048843326194 -4.1579029308845294
156 9.206937908798377 -6.681906484664113 -4.031684969913955
587 1.0927564448933658 2.140243459881747 -1.878309562249081
1346 -2.1645018978026274 -4.662896921688625 -1.6628508222261138
726 -1.313893742677122 -0.5508598479112009 1.11143412970015
52 3.622792703608894 1.3818559291432222 -4.207075056784438
456 2.987017387562525 -1.5609926104480507 5.847159687978722
1503 -5.66923968264933 -2.553987506314044 2.381053144792383
1462 1.0940125622391101 7.073382519491327 0.9459065146343529
1208 6.249053601285386 0.16410066755846905 -5.415013746969385
1410 7.169706451845611 6.828047245668007 -2.901671964333105
447 -13.596986871180036 3.469163482707032 3.0748028711425994
151 -1.2723422870148628 -1.7896983279461849 -1.745228437744928
832 2.7382629107384977 0.5930366915142277 -0.12651005477845442
341 1.7982679348193986 -2.988884127914451 -1.2862337684221794
431 -0.854368202396405 5.462719839038453 5.5141080711759685
960 8.06677396053095 -2.7462467646220032 -1.3189397881680822
2180 -6.004342091729272 10.271848917844393 -5.5374633214112
1880 -2.769925440197767 4.044317932517955 6.427928652744907
614 -2.8931226407204758 1.7181573790305213 -2.8310238686774634
523 3.2405498462028817 11.46351608232339 5.833350568397586
1458 -3.556068922084274 4.949301307103547 1.1413608798817314
185 -4.752279763454162 5.34981165280211 -1.762198335852467
1907 -8.53474493563576 2.5210909693528736 -1.3950971199501088
635 -1.7972082441732786 4.6062660464203065 -6.583258457148412
927 -1.7557665842517671 1.6993029154514299 -3.209938136790132
922 4.146038188433458 -11.507985885163688 -0.8062576040648857
1192 3.978785209469525 -2.30940582770574 -1.1977492678246433
679 6.349228081735402 8.802281803059392 3.5594997853706634
483 -3.146340340391434 2.512438095099406 -6.499832768647538
381 0.005125418545390517 10.37418807980413 0.2750585786733785
1245 1.3876832206409742 -7.522418535881147 -0.145043250569307
988 8.5869814286404 4.481822072853224 -1.5844888025607275
2050 -5.932357779394415 3.2293587617846686 0.0798676454584453
925 3.3949961573246674 3.812713636924016 3.863818332596736
389 -6.755022257190309 -4.484083781955341 -7.552328407491136
1954 -0.6148872820333803 0.8696435931560828 -0.00832699141275137
256 1.630089740529192 0.777592722839581 5.913501403464431
1452 -0.21742707486350019 0.39992917580564974 -7.066638791177814
711 -3.8023651942652315 -3.00970899686666 0.422192073162921
977 1.7157960900164198 8.347817466729142 -5.3255239634892835
1837 -3.643171777041086 3.767661951685856 9.119068736869528
1368 3.7191201415833377 -3.1946013003879457 7.1368300290898095
1154 1.5753861094028596 -0.6636826413085097 -0.6898032569020531
736 -10.277167338363329 0.622541455642601 1.6466727475148237
1769 8.989847883596255 5.949661968221726 1.4375086684344445
934 -8.684614670288731 3.9784469024484874 2.3128369993331868
631 -8.869322473579862 -1.4461440526095788 -1.5590852630327623
1178 -0.8141076523565715 1.0683166117319998 3.7028779504346905
1488 -3.06747052901824 -0.48427822681446187 1.4582869593476406
1738 0.9233514745778398 -0.6642651627010865 -2.5792539508066104
1690 4.040240891472039 -3.9256881232942824 4.436850458643153
390 -1.0094447346061826 6.529493784825287 0.31992142263387896
944 -1.7146770822565474 7.677786636599463 2.511052242589717
420 -5.750176591036626 2.1008602968754517 0.6757483712744179
678 4.670755092556052 2.2164044408526644 3.2192918691747128
461 1.6043377726010337 -2.563911056593667 4.691627506419988
670 2.1908165419066625 0.32616237491688344 0.8815241521057521
741 2.6764144761010065 -3.181791528338896 0.24115554829059802
651 1.2447976465048034 9.481660513276305 5.555404503361719
175 -3.930255741053392 -0.45501272747647875 -1.1935891037255415
1407 -6.738545666788394 9.810591871800474 -3.6662348513024257
1255 5.3290412014728386 -2.093330254240836 0.965519537321867
184 -4.489673917998126 0.30020728768588467 -5.228729553067921
1687 3.569355924088244 -5.0776133329443995 -3.403683142388845
408 -0.30700687751855243 6.926997063922527 6.017134552572468
645 -0.31936859300953924 4.370089450712099 -9.631918816652819
774 8.760267772968172 2.585137029064901 4.329423081009874
81 0.46864904419653786 -0.16159132554163586 -3.3486371027920394
969 0.26252671765094837 -5.15890124817291 2.174645289206397
1788 7.6581937761353425 -1.70773844768972 3.6505274986144864
718 2.8709835137865234 -1.9871180616922044 -4.199201920404761
740 -0.6896707684535685 -1.8906276962040474 1.284286856969482
1686 -1.894585505661618 -8.047379162499638 -2.6070112527036295
763 3.7387146121154884 1.5029971474926678 4.209231246275449
528 -5.795118164209169 6.219782029981221 -0.6012460400729598
1536 -2.8379172214166366 1.19008963704262 -6.35420726338864
1466 1.8088221468811576 -10.246424199932152 -2.714229622990726
1158 2.592736459300153 5.107685661783494 3.3675239577139355
1114 2.8381572584923034 2.3811953305900544 8.007077513640468
646 -2.972128049899249 -8.299763033656992 1.4853729041257653
1457 5.628568323347636 5.090947309444215 3.5215926120252057
1186 7.020004428828297 0.7132234152457639 7.282948345540582
190 4.997686447751562 -2.7619550156341117 -4.199600753086932
322 -5.055396592408408 -0.4644022607834405 -7.566215897592736
836 -5.29545146320691 -0.680397206025454 -7.879423028011398
1309 4.046382864376361 0.7227624907196211 2.5760458862402853
1440 -4.036286323766431 -3.292748028570522 0.33513918128715703
1593 0.07803786802253221 8.418496556388146 -1.079941174752307
327 -1.9122726505196768 -1.8244810241450131 -4.717490285757369
824 -4.826596189223773 -1.147778218373122 -1.1038354728757165
1110 5.556089342703819 2.822168642177667 -3.394292251020733
902 2.9395103090241523 7.6185807694118655 4.5629730491735545
372 2.7349652996248737 -1.912342692549555 -2.5317902267741768
761 -4.346109991733463 4.733330985709908 -1.9477350434676899
1745 -3.265359140669048 0.4755358138628263 -1.7577551171212824
827 -3.5495062806290334 -3.1528918560995036 0.5360926597056137
1261 2.7064341579004836 -0.23691331971695498 9.78571094915487
531 5.488333849236696 -3.4659250163605866 -0.591661982011117
683 3.321743620399605 -4.394018811063777 4.864696239778482
861 3.066914889718009 2.8749529036956334 6.352702859344034
2295 1.1822146214603717 -6.238620539640747 -6.197912195201838
705 -1.4024212204896396 -5.026082207544015 -8.374298372180274
838 -5.537073979257608 4.97654215397295 -8.831475829084978
51 -1.5058414352426326 0.5556120551675716 4.692736339950363
783 -0.3952038393463753 2.3939282763553376 -7.098643265803165
677 0.14894840550570815 -0.7520457261817686 -1.270523203693279
1483 1.7263974347753468 -3.643910339224645 4.482220756856421
422 -3.7174706876895938 -7.322235636535485 -1.0790584800595573
309 -2.9787012975793923 -3.4607376466372575 -4.351516786153972
586 -2.20050331591195 -0.12223367707912819 2.9513295718412444
487 -2.575334830901096 -3.7687070428635434 -11.11926229742196
364 -4.860182916710989 -2.273291066287899 8.253271997587726
482 -7.668872777893647 -0.28503834956665036 -3.917345713967292
1337 4.7275981049057085 0.7864840778908063 -2.5130871375354715
1923 -5.613147671662528 -0.30076923552898954 -1.5598586627098638
941 1.725255637674539 -3.149493847905831 5.8882446767436925
1298 5.0975707665945915 -2.8316645747087272 3.019576705501153
365 1.6717164827411735 -3.6488684195991286 -3.3462633108189763
1541 1.874933245390197 -1.5236573639885727 -3.3819777288495083
1831 6.047439132889197 4.622120303082697 -0.9690202152816769
664 4.070094906104879 -5.549276450891317 -5.198431742952959
1193 -4.210123878125137 -4.708512312564258 0.510295405283425
642 -1.1523173029207106 1.0099815838411148 4.829408238220164
320 -6.477095826522777 3.069965926443643 -1.9831601810930561
1079 5.272179838872129 -3.418154846025594 -0.44270495989971104
1041 4.476798759288738 2.2644702029112898 -5.957315731889135
593 0.8468211045239407 -3.5140144582584463 -5.27577821697304
1242 3.174866605880307 5.838816347245988 2.613712199139522
623 -2.558834212963639 -3.486238918281178 3.9974873479040176
1467 -4.380368917320743 2.3051928668656614 0.5885244868331739
1175 -4.825647074229394 -1.9789865257749304 6.459862096430342
601 -3.479390310547296 -3.139295949490574 2.1741128927568574
265 1.1088705747682548 4.646044018139708 0.7810244572252325
436 0.31138604957447275 -1.6360676647459822 3.156791690164708
465 4.278797388711123 -9.980445661189403 2.4628292137076953
1429 2.221105613393586 2.201974881833224 1.7181357614541342
1265 -2.3776959872933108 5.583080058782221 0.7784300105624895
569 -0.26537086398622056 -2.2022362293418927 0.015367738552127114
1203 -3.2691863958466114 -0.8606576663257058 3.3398036163357077
2241 2.497991198405643 -3.1651930219970783 6.4772525909036975
632 6.683494542123994 -1.8146839239972556 2.252133949716211
931 -8.207372050328493 -2.496208962939674 -0.972220520454349
1111 2.6095449729210145 5.975507192503136 -4.913188158824663
1250 -2.0146005306261165 0.7683556300634256 -6.586639274157431
1398 1.8770433179510033 0.024616561933452016 -0.6998957492198001
402 -1.1119843823948163 -3.0555530631044436 1.7406704055185624
1019 -2.40273529735044 1.3657961087334398 -3.496218561025395
946 -2.65269873020205 1.8246825035531495 -0.02412839600105586
263 1.1761332257139463 -0.2720815922508369 5.460083822862765
275 -5.760890492653398 -7.528526529728812 1.051796367636209
32 -3.77274983864855 3.5025028504302362 6.148686969361969
1447 1.0131332257215369 -0.20863726219200884 -2.8457430179238274
421 -1.3335278889828812 -0.8080237647360045 7.800132742767765
965 7.0359894856934995 -1.8226661918376237 -1.7373715839148154
1600 0.2780840453735597 5.829086516199213 2.7383787421710983
282 -8.414768290659016 -4.530821570619417 0.9730101097769168
1225 -1.6429699623519878 1.870515519548196 8.636623691935345
921 1.2286719463200626 -0.2782343552709478 -2.213669425399429
438 1.9573648705965052 6.141919669771758 -5.3975262949910725
1566 0.7881468962880823 0.9931261656779586 3.0823919173966345
283 6.4269237369506325 7.87901307764341 -1.941156519697769
1139 -3.858066212316082 4.682721260251885 -7.622054695088453
1465 2.5956270006789866 -1.3504104602750475 -4.0120474115557965
1246 -2.762325863011554 -6.505542841839638 -3.9331342668545184
1224 -0.06584070332329689 -1.0241915547045046 -4.835133039331237
1446 -0.49913746427981526 -0.19450080861361538 -6.250690571527872
434 -2.4114714406182367 -2.360302046171985 4.289118535944185
1307 -2.0586774446099176 3.9293579766953104 -0.6099240850915358
1308 2.5578160420465936 1.3536922461556617 0.9785144965033342
1205 0.5396207818927202 -4.334843866966223 -2.0461410196219734
1551 5.550883263500943 5.785406802964802 1.9952989047179084
579 2.25373757896138 -2.7005967012668606 -1.6868688312718207
1700 8.146273838663218 4.2808077836748195 -7.859862380592853
1173 0.555631237441068 -5.823288406667081 1.3412214570442131
188 -4.582298720112995 -2.4085249895970153 -4.010420177877717
2233 4.170430648544661 7.619783774548192 -1.531287320141829
371 0.4562088603553732 -2.078259392583273 -1.8910678811930022
656 4.860379275083935 -6.354026311616844 3.034559642079938
962 0.18787473545119393 4.31180534376104 1.8129926993358225
1369 0.8255741989832711 0.12366156572006592 -0.38087141805015956
1300 -0.9523771109987598 2.8299332673177005 -1.300515655716472
2281 -15.454834887421498 1.4861708378835807 1.0080524297789248
786 4.597921610061885 -4.040750166403753 9.107508248798602
972 0.09134324270350228 5.764880195125357 0.00011767199166342127
1341 -0.8646314503916289 -0.2992769391677497 2.989184258070581
439 -8.425336388341284 15.128859602346637 0.3382029052121278
1908 6.922609351119682 -7.261779449655008 5.510637709445306
1981 1.6325357148851005 7.104776583898821 0.9434854442676806
1112 1.9319404654731656 3.83739945280685 1.7215318945912397
993 4.497939142419703 3.158834919766575 -5.023816773714704
1252 2.4100071216810717 0.5550305768690034 3.7185749495868454
1485 -1.5970988357471607 1.7570235641325531 -3.084303647350674
1956 -6.89548731409173 -3.557467506183989 -3.405462617394216
368 -3.610017214070556 -2.810696402625636 1.4596029405776314
2213 3.032550231417761 5.766984264882747 2.4456784793886968
511 -6.966234709571489 -5.977974386243844 -2.2072827439616236
1844 -2.2869819525955877 -2.420266498217993 6.860279234279768
2097 -0.05054942110738848 -6.353391233391739 7.358681150166811
1802 -4.1541696286253 -8.484244094658628 -0.4575881579092682
391 1.8635396299076494 -0.448473700704796 1.9065823568404097
787 -2.0854177221948405 1.4971041661456372 0.14863699819468362
324 -3.214440254666026 1.2210835149377801 -6.209205138122424
1481 -4.646739740082412 0.7157535409213868 -2.8835107343191577
727 5.214968774653422 -7.090217608415494 -0.023459045381477774
1455 -6.430852781926514 2.450370488721561 -7.915074825882714
1773 6.616656291882913 8.212603166893262 0.5827109123761757
1713 -3.3356150343515774 2.13711419761512 -3.839844839903782
1268 6.25990675989172 1.3188969029524835 3.9036488490061005
538 -7.264064411192723 7.001411232020439 -4.338019632308903
513 -2.507712672206456 -7.94893028385406 0.8510533957189875
1888 4.239910690214687 0.37301650261087005 -3.6864808196965955
166 -6.031448826537827 4.476161167105086 -4.212514124172732
2012 5.630537088682411 3.6444266394848674 3.256376028569515
1760 3.1817000023392885 -5.349753643224595 5.784617609127181
2499 0.32803291976896287 0.7124141553227219 2.8346776158031037
1965 -4.094429891914431 5.05150533261372 2.0949240163488048
1085 5.796871950445578 4.180890158154153 -6.556953684401742
1479 7.53054587006619 -4.5993024582217386 -5.546857938706321
348 -4.75950688401567 -0.21210728842261062 -0.716180597106781
1658 -13.78418757608624 0.32840545716596237 -0.10076848450418817
261 3.2146469535382405 -5.808545016631717 -4.812653365283292
860 -0.9210889960870867 4.170415667136782 2.1220646461815367
1034 -3.5252406068458484 0.7159279854871634 -5.338424924569445
1351 1.831882413421344 -9.126206359332809 1.921455132642299
852 -0.13583859939185983 -0.0973810232652396 -3.553816127507566
147 -1.869746072073101 -7.033895780868598 -0.8495784534263475
2421 -4.284280827334895 1.2302076290044266 -0.6678734198520838
2823 -5.561334905249628 -4.460094773385076 -7.439400505412006
1661 2.183187182943354 -0.6596826852046056 1.5870392191696958
1135 -6.776533428355497 5.287718350185376 5.452728638345208
122 -1.1000259450530232 -4.5052685855963865 6.416319466688525
1943 1.0303942448530403 -4.621414516581032 -9.259052932523844
1093 -1.4228722129106506 -2.73735707457983 4.930153948492884
995 -4.177618719472429 1.6531997958328213 2.421869704010772
1381 3.3565028315642933 1.5314762543211229 1.8433021528065834
480 1.4680409352665622 -3.6263838039775154 -3.6220207935594275
1554 5.663608327232365 -4.1493057029448766 4.414989759755946
2034 -0.5596756584397108 3.654138947075986 -0.7280905329445699
964 3.0518285781474117 0.7275018016538266 1.3695030992232031
1057 5.338473057491895 -2.821906826613082 -8.18760094063069
1096 -2.7724809844479053 -3.0014680625395576 3.9252822023971463
1131 7.278668899938228 -0.40493784356281926 -3.9080139443527093
2526 -2.3299947122724984 -6.697922752751162 -4.8950444982933705
1408 5.1848963101451 0.42751107490876084 4.587817980457247
1779 -3.3905282631392533 2.448983706315551 0.9367849699435682
49 5.574239981672887 -2.6975076545442573 1.6591774290969088
1951 -1.5621256404714279 0.10563993131396356 -2.7352644386906113
1932 3.748454556515183 -9.431573235963855 -1.160340624499385
1216 -3.933101340135753 -3.8897785239476295 -9.887035898214743
2596 2.8713013411314674 2.1098493496788935 0.26447208527143795
2296 -2.501435617488355 -3.535208870742312 0.8510700678496649
353 4.428033280005571 2.426820802842776 -0.054864058117842375
1983 0.1220213769081056 1.4098633963835432 2.051410456857271
1124 -2.3056442822140206 -4.937546373794675 0.05636563368511857
2145 1.0351886971096285 2.760032628512745 -3.186777501156456
1504 4.870783657436945 -6.547170155294333 6.7477457113089825
1614 -0.8697328430412863 3.2093463486421867 2.3474058174803605
1071 6.627738891769678 5.942892335844494 -4.9737116844434395
595 -1.96593288063361 -3.529651116633281 1.1671895304579287
649 -2.899456689473236 7.981168789315076 4.262000701281755
1043 -3.0863865329807547 2.7292044491494756 3.0858935048014913
810 -3.103921157329783 -2.326112731296558 6.986709803070586
2239 -3.942910104273426 4.251409585217595 -4.5600684368157465
1038 0.4896807942171186 5.990577927543695 0.3735933562730966
1605 -4.222966597504891 5.590873773307209 2.622891866549733
884 2.9019676428106425 -2.4284560283813743 -3.6968981501543126
841 4.724336886415715 -5.723662749048132 -5.186519866697093
1302 0.45643534880170017 -1.4378551342690369 -1.3749692566379175
1902 -4.0188972752021135 6.7097844569444245 -7.334139411216571
1898 1.2653285459548853 -7.828387586451636 1.4843473057984469
1588 -3.7249704333766203 7.158708540735835 -3.214478220345493
1817 -0.8302834224492703 1.5075837457941754 -1.3847254603378618
1267 -7.084945663195567 2.5892973534438304 -7.158218233556281
1828 -2.1216307108220422 -5.698990803142888 -7.042831849528126
1174 2.3614190273497693 -0.15511202062211116 -3.127240252349313
1947 0.18928106102922942 1.9563061607296695 -1.922170788527179
1183 -0.1885850427978913 0.7477558624593711 -7.300237465053343
2122 0.7531804060120827 -3.631416012457611 8.832677724391143
839 -4.917696218118664 -5.4412166063724845 -4.759145883078496
2083 4.366522316182133 3.835637095666944 6.506704451416368
918 -7.298694689307301 7.540035599332898 5.085229868924247
1820 6.372364745693571 10.253652338671735 1.5436048273907748
1894 6.742369326584139 5.008722485450364 0.7727531337685959
1924 -2.1435622017169127 -0.2712203579802169 5.860053204139515
1952 2.4325443179919515 -5.718476542457705 -1.4162892776102185
935 1.526035494635365 -1.5692781263874855 0.32655008805839203
863 -2.612536497789459 6.998422963586435 5.411886589833349
1885 0.571546567307655 1.4073607810156483 4.751459457126884
849 1.5482272714623382 2.3465501000467968 8.649651700918925
945 3.778851920733013 -4.1398431272428935 -1.1486966110445274
1042 1.3730980885841455 -4.501049194694742 6.755107764937338
544 4.868730518387647 -1.1683786262699019 0.9848836102010395
1596 -7.824573452293327 -2.327336727854906 -1.8067728846418494
1343 -2.450765955222126 5.098662440717351 2.0423959434413876
1520 2.6178151579045665 -1.299909824740254 10.968728439750846
1578 -3.2783504711559743 -5.175391607729999 3.0349711785036035
2039 -7.531829378567767 -4.8166854959215275 -3.493170875022579
2635 -4.0384894557706925 0.7573905817396654 -4.787711625586063
1053 0.6380248640175732 2.3245502570020604 3.372503166223884
1336 -6.126207171824875 8.605720705409865 0.005008242488606913
2666 1.7110870422921773 1.9931456689675597 6.048983925794614
758 1.598654189074582 4.446241428016094 4.447831027905253
1370 -4.041174517149725 -4.021787795073824 8.700386844745417
837 10.431354223269368 -3.5740447233037957 -0.12933286878087938
1449 1.640837533901324 0.9964995461258682 -5.56022554183626
1517 5.007666645942106 6.10880877997078 -4.936463246038692
1099 -5.107714523157548 1.5643803284304405 -3.228522722568143
2214 4.348401891136666 8.844649869111823 5.08025165668653
1120 -11.200794118587128 1.393648907431024 -2.479435837376818
1759 -6.150035721031472 -5.108840277282647 -0.4590282721816804
1906 -1.069637308232607 2.7524978624692467 -0.8256684893122767
2521 0.8640916969105996 3.033761298056713 1.5223326751075532
828 5.294782347872845 -9.613432330751838 -0.20166236448945926
1472 3.6991731494388724 -5.042483761991904 7.682142230058968
1510 9.392346511880977 -6.076678978495349 -3.863404718312066
1363 0.24965490239746604 -2.1546175684039466 0.5126492779240411
2225 -3.1768469779730797 -0.7679863840012835 -2.5205704390541017
2681 0.11341881185834497 -3.2290780516796085 -4.284383346064691
680 0.5059730207754403 1.9563106339173693 3.1847310327404643
1940 5.883412993468918 -1.134352190991438 -0.30281403364139375
405 -1.4356255241975902 0.9851326691836095 -1.399415541821111
1639 -0.04942174498444332 -4.025597413489527 5.50545054020412
804 1.8064956503660157 3.2788076060648432 -1.5443991298847761
1629 1.3350250995628559 -0.8316392004105236 -0.15267200702333764
1764 5.4119967736239785 -4.990199479826364 1.375756929996095
976 6.343473077470623 8.342042225923539 8.34977795134467
2561 -6.279124944797698 -4.3434688792876095 -0.8246942795153464
1040 -0.12254982334041803 -6.974740387087125 4.449694008732405
355 0.07059588991841406 1.3115622420506894 0.8392048042736765
1086 -8.88359939412786 -3.8621563620249133 11.53240426786989
388 -0.2534810052135128 0.6861081038108053 -2.725392397803997
1512 -0.7412324611886782 3.1943473708664305 6.357039527551944
2360 -9.91722241610667 5.844680753182825 -6.419164207019005
413 -1.572579239823972 -10.781748735387858 6.573703605316126
1677 -0.4580999342963302 1.1245384720154818 -0.45756288798622424
2397 -0.25494877946456956 1.2112810299036092 4.08288176070918
1656 -2.4140722990756345 -5.662425543320588 -1.2971331902744887
23 3.850619552449195 3.3924101102027713 7.923807447139962
974 0.4921395713310274 1.3606355293489736 3.2488167993302497
2114 1.8484307183175306 1.871448714154117 -3.489102929543461
1331 0.15814205845967855 3.7141568421316253 -3.1082139603152545
1883 -3.878146040474946 -3.7948355209852496 1.3645930358785452
1164 -6.9087571739637905 -4.758407715741653 7.460405330540807
1731 -0.6284020066486267 4.609167394118951 -5.481641440730851
662 1.0424536365580508 -4.049991876063203 -0.1075656513641613
1613 2.3653463047607666 4.130073636401807 4.159272845227525
1950 3.613634766359762 3.955237433828976 0.6548668469904582
1580 5.779934063981912 -0.8224755219253953 4.447410511109284
1473 -0.4056265321606433 -1.0744758412958597 0.5975760456220047
2326 3.9093369274653305 1.537142589574816 -3.3949601250910955
1347 -6.1057255908461965 3.8324211418412646 5.448197394358773
982 0.38926927394457034 -11.114165037911905 2.0305968778112504
1726 0.8880931869881866 -9.337674767228478 -1.5903589286935105
834 -6.426961217228792 -2.249124000320888 1.6142635154633693
351 1.1338027167310598 -2.61887977694767 -1.229462729105013
1729 8.244569679155347 -2.2678300615757876 -7.919447692836736
1402 3.155870011028121 -0.1720240976275086 -6.859957196733479
624 4.181485959443071 -3.018519298685411 1.1325585158990168
2249 0.2752275966277983 -1.5326129277599365 6.91753310243042
1499 -6.283504862216702 2.916929519413375 -1.962768602238743
476 -7.724868769303527 -4.957030691361162 -1.5755938737511272
2230 1.3117557350852942 -1.2395208000400646 -5.11271373529186
789 -3.51925582349287 1.790936665048993 -5.683772314984818
1424 4.065197834475619 1.5606056055565372 -0.3107724925166551
2020 -0.660257791045924 -9.067888722827064 -1.7721622125311247
1133 -8.398861280922313 4.49126470078693 1.420068132931477
1095 2.4030594023013556 3.7236311765341426 1.4068269536769813
576 7.255921406455617 -5.043950115701747 -4.2206045833853985
1090 -0.9640006962387467 10.52126290997972 -2.507832331956591
914 10.200993973771142 -3.279187259548829 -0.7271966846212281
892 -7.428046654749345 -2.194147336001914 -1.5496322351887082
2953 -0.7037876633482254 -1.2161923993372985 -0.5084335647856543
2707 -1.2698074078712946 5.826339830634453 7.164528822583861
2289 2.018512508911958 -8.36052878523416 2.362633810486386
1477 -2.397058096478475 5.726544633145553 -5.06064496188244
2364 -5.0758996323581345 4.134384172291076 1.8306546315898813
2346 0.5245536842807785 -2.2313509943872676 -2.218104034402427
3006 7.9537128142501246 6.918143016619073 2.62766847721099
3 -3.6936467375747175 -4.858616909441744 6.746302848229621
684 -0.1830642197593711 -4.128012617814616 -10.439716274748852
835 0.25370483113622594 -2.346568615227451 6.434661730244934
2528 0.8044136879818571 -3.876593101526099 -10.64578362015522
2118 -3.4634250842028313 -3.225622596879247 0.9354348509299437
1026 -0.5825335261605963 -2.9742918001388063 -0.9268541124921993
1982 1.8552651460753882 -1.2273019360166617 2.45653071734375
1037 -2.5716693167069433 3.3337434801336068 -0.5714562204396455
1839 1.106553663645944 3.0415688478942062 3.3749675723112578
1116 -5.561053011035466 -13.341411327130348 0.08860561999999966
1355 -10.404938753400431 3.609252043435835 -4.41193844256479
1991 -5.94881521566624 0.5772144026463926 1.3958937545955616
1210 8.816461841622056 0.7739596396691977 -5.749313967668366
1864 2.211222054575002 2.236504564441587 -4.7298620878221715
830 3.664297656163891 6.489619768214865 -11.76989637114032
1191 -5.9881838776706 -1.3646046486291243 3.1948201263306584
2404 -5.946106005236022 -6.751410072573631 0.8816368834832439
967 -0.06630220353508093 3.1679958137324213 0.7539055487173707
1123 -5.798991807781145 3.751286972445894 9.535713576266607
867 1.8396084038646896 -6.763085820887774 2.062571849338994
954 -1.2013032618257338 -3.041494654662576 1.1848175118733955
460 -3.8473028859584235 -0.24908707500070232 10.094511257238976
2747 1.6593678560535878 1.0048757925032086 -5.275839926928622
1231 0.19330200232722494 -2.1174722102980756 -10.095068399054387
1367 9.656641528606093 -4.149463434865887 2.045208696032304
1125 -2.771274975620887 -0.664371413999753 3.8549175058523355
1352 -3.1081606940907127 2.680542092933351 1.5238039975789675
1692 -2.6260766391622434 5.073160710788931 -0.6705056306664189
1752 6.378878081755445 10.540381693856597 2.0893738940977107
1059 -5.1031459217876645 -1.3187862641470396 -2.3811098844407206
140 -3.9592317302606985 4.25443864976484 6.441973753785749
386 3.718508964748956 -1.5454658351296822 -0.4995099058163041
2402 0.643970766045511 2.9125964058162914 1.0149251342654633
1515 -1.6490767152880526 -2.6805584097848554 0.6956285466950715
881 2.5147596370875878 -2.314402619107747 3.162770651239316
1926 -0.620309817328787 7.713610863337165 -0.014631308711335358
951 -0.22951356337618364 4.389677907763305 -7.700454852663873
1117 -1.5973488085888512 -0.8445676860818031 -5.8602093982869725
1240 0.08515100313763926 8.377117329416894 -0.7024556238463635
1366 -1.5620639565605985 -9.240804161817403 1.8766396169170216
2211 1.6973409221047806 0.5408615452715841 3.0084444349681005
1801 -3.2145400762113963 -2.2485785125500484 -6.604822893221646
1182 0.01611688136926731 -3.9452625115512694 -1.9712887736181766
1118 -10.332479042367154 2.999272680604002 -0.5470742549556024
1128 3.839589989582458 5.176890353380178 11.05805914531758
707 -3.3986386182802932 2.609478757386694 -5.474043884804886
518 -5.830659109810349 7.333420684966577 0.5994750748120142
1288 1.4642745096506289 1.304612211859482 -5.404893821958623
2147 -1.3745227514161535 1.1918448826049388 -0.7892400764217541
797 2.3428445958639736 -1.431798542584239 5.372218907413963
1119 2.078521389247204 5.967536638611088 -7.003075333466676
1949 -5.550830881251444 3.4721765828185913 5.453231814475083
919 0.10412025224074728 -1.1656331531871589 2.155164732353799
2271 -1.6722636163697253 -1.220607966430332 -4.588696681812179
2227 -0.3337106999923626 1.3825475370537588 -7.125159366184071
2634 6.1785439004469715 -9.938659791092416 5.935859249620816
1916 -7.222773178365248 -0.34370010525399114 1.7871807918371392
1011 4.885319052345294 1.55874420869097 -11.608776938875245
2581 3.34563612414523 2.6149366989898897 0.3851284409031231
1685 4.132226715268278 -4.3626413038689105 6.040317357030822
2892 -3.0521546700101534 1.7841746991892915 -2.8289317646888783
1190 -9.790450143392835 -3.747873453929865 0.34063274542811456
1799 -2.431686528833044 -8.92238341657787 0.4889346857465863
639 7.826112033517232 6.445784299235019 -8.43178423348189
1784 1.7799051649012478 0.5873894790949783 4.5878937646257585
1030 5.36366347576046 -6.4136145078781786 -6.402690904157605
2042 3.7801422566548304 -0.7983903756077801 3.6025967373960244
627 4.3043393624593875 -2.2034530840355555 1.812078737581322
1395 -3.050416156216583 8.725795064963478 7.874974837310256
1691 -5.21840713864274 -2.6469875076485927 5.141615820773594
1404 8.150045477436594 0.3374631854428045 3.905051174735303
1318 -1.5498729638829059 -5.294529984334933 -5.2140791423063275
1000 2.9763110100340433 4.04026482126622 -0.7268205315615187
953 -3.6991966707918955 4.864182055715119 -2.8055936937498442
1313 5.493280444850985 7.411779759097401 0.15030160167880768
1400 -4.256680725600846 3.401804611895625 -7.3999318944431
2135 -5.673085107025181 -2.9081674076042994 3.6796917298036877
1148 -1.2958127781048139 -2.0668033745516685 0.32485814065235563
1486 -0.16735658937793257 1.2029016519926836 6.779708330435272
929 -3.8460172167915294 -3.2872246927351405 -2.9676033455053346
2258 1.326221534724292 -1.809265323819242 1.6071257555810337
777 5.618473363340169 -3.1783922523243624 -0.6082429466680223
1967 -4.659315438642564 1.470172890248789 -4.972361417004479
1266 -5.325269231067277 0.22428346327518375 9.891724698424682
1919 -4.898925802991443 5.848263319854499 -0.47184426213103714
880 1.1666327894494493 3.912945332265483 4.485185213028608
1413 6.015043380394152 -8.509644194877117 8.819674984401656
1953 3.111020437536365 -5.2720409390775105 5.160513698448092
1403 -4.639183110602642 -4.181640464397898 -1.380977040665665
237 0.250318137628917 1.1393848968234905 3.9142275792560155
1022 6.412561721616015 -4.4960335672999685 0.8825564395208927
1156 -7.714089543587422 2.8317209379809354 -7.6974117253764325
1822 -4.1720926908498255 -7.36416085814286 0.9634591841545057
1532 4.8422376345135545 -7.163445705208253 0.16552623084869997
1829 -4.81716132075168 0.0329044430711045 -2.234671917894781
2215 -4.068446057054367 -5.505688690565785 -5.5403877599579205
1046 1.890138515364143 -3.583765399985143 1.74501496360024
2905 -1.5484516229918026 -8.783546952055229 1.796341276339262
1018 -2.5917227944636414 2.566975868250351 4.058156836926295
334 -3.5459979530093597 5.026628127121142 -2.851479746696844
212 3.9864745740754675 -1.3264656981196232 -6.734053578339571
1525 -6.620183463089528 2.5531163281913463 2.045819611861147
762 -2.9007588744403257 0.8376485879062895 8.301499067025603
692 -2.428982881687897 1.8732329257802378 -4.365152499659244
894 -10.600014179531216 4.9658566665607555 8.065936503922073
2370 9.850907015408389 -6.167242103801657 -4.446953404621158
618 4.5315468652333815 -2.124826959329231 1.5291273927118736
1827 1.9471161943650792 5.941750802617947 -6.7333559754946215
1285 5.458975010775329 4.21678355849653 5.131263994546256
2007 5.95231569875963 -0.5211907843051579 1.266385086367014
48 -0.2586595743905937 -5.8243135566486925 7.538987064858124
2456 8.015692164466182 -6.299990087169951 0.014619409071817234
2019 0.9965120894506644 -1.0301331850255013 5.246758816667573
1229 0.878866049048131 7.897951531287716 -1.17392664787416
2335 0.3852148340363386 1.6125419487646482 2.267798108876279
1340 3.541599181251545 -4.656866154072961 4.155736049390831
1511 -5.7360767504343615 -2.0357127988215415 4.216945594082774
1219 -8.437520064667133 8.281173617325768 -5.862780310463514
433 -5.211397154680239 7.549772807078794 1.8665816817262477
1810 -10.257763294005636 7.439442325426554 4.6904905286511935
714 7.05488007257366 4.483715663752846 5.371760141540347
2486 -1.6400042347030064 -4.0475476683693365 1.3681633318434212
15 1.170257788971235 -6.650868982920881 -2.015473993832587
1345 4.06279417352833 4.122351851261333 -1.5200658323184637
1778 9.246935662558089 -3.9489131554146564 10.406451639989402
1694 0.20331673813235 0.6737899770809792 -4.051184622475263
1819 4.246567421766481 -6.189780942279276 3.3194877834460064
2302 -3.2317294882346 1.9845782897268185 -3.4400269074460468
1256 1.6113659620768326 2.8350926230069913 -2.022300693962439
96 -0.2536084490525701 -14.009913836631608 -0.6203372754458356
1271 0.9274704716188927 2.8518122550487934 2.683847110302568
1562 7.983843967814882 -0.9260541625934524 1.7855068518888306
1051 -0.9550486374839962 3.55354136669953 -1.049295960653043
1295 -7.9130781472452725 -6.655825933463708 4.815618688078482
1009 -0.731669055684166 1.860227662469261 -3.8186187602647688
1305 2.351927946220776 2.611049981886666 -1.1302287612397197
2283 -2.4453662164424594 -4.890887451234283 -3.6243783184366363
1088 1.603795251922115 1.1922669217928303 -2.41341536295719
1020 -3.425363642121884 -4.212252960451038 7.835357760957327
1620 0.6096482893808308 2.1924759655525574 3.4196003772077908
886 1.840917630933028 -0.47021712232980417 3.3969539709234287
120 6.1909650442290385 -5.555174007402683 6.959012173313993
1911 -4.7808944622140075 -2.333737229655942 -1.221421501993497
735 -1.0931697705595889 -3.3736514472577706 7.178979398211487
907 8.290745082161601 -1.419775273630273 2.7675356046421173
966 0.2925905640611891 3.2927998171071766 -5.352682725633888
781 -3.527724879909126 -2.6684198721482137 1.8154253220018897
1001 5.627684211268072 -4.525274843674778 -11.856311045464798
2103 -5.797179150843398 -3.6140452387312996 0.3738042534856132
1768 1.333694444227608 -2.1603431399607698 4.73941210170274
987 -5.017388088182831 0.2919309961283839 8.877100387872979
2004 -12.146512214523353 -6.752602727601748 2.0522320980579294
950 4.069695554226393 -0.33275209983304155 4.483779491323888
997 -4.366550652348803 6.581347718758028 1.7847876420762758
19 4.052899842984409 1.7974246344859892 3.6990768087165926
1399 -1.0343656353636526 -6.174250158836826 2.587235693833781
1730 -4.638303290765796 2.3698375767590227 -0.12375698665260518
819 2.0138153080178105 -9.976949171428826 9.446279220221188
585 -3.158685776709897 -4.025982419088621 3.8900492165060636
344 6.659203478237339 7.974936324409866 -6.155701669476811
1557 -2.085066449578975 4.1510254468481484 7.138064141133703
1527 1.0454447649682321 2.236255704036698 -1.5875509969055361
529 -0.21500306449760945 2.7024648920555356 0.9465713594828552
1524 3.491000576792764 1.038691109454767 -0.8874755764837823
2280 4.645780976831663 5.295945884577325 -7.603276186242327
1680 -0.24174072722683082 -0.47922936795388793 -2.239495044034356
1140 1.4360864940472617 -5.338449901641188 -3.376116315804224
1500 -6.700367530074539 7.052167516088332 -1.817949304396887
1376 4.479478983476313 4.807641769292605 -1.633575802156718
785 6.874631619736139 6.315543812403591 3.966078716935596
1577 -1.3883230557870125 5.867537143519381 3.810262976687549
2698 -6.533016156045946 0.5859286009350037 -0.01741405475311999
1568 5.955629625452294 -3.5613722498188713 1.6148646148147088
909 1.5000994004768922 8.827896521185105 -3.9867785229033346
2008 4.73197832845301 -3.9439796633544684 0.5445085855454261
437 7.190391302753761 -1.8090803040271966 -4.1914325072229905
186 1.4967704830030741 -4.819865423920508 -2.707982456441167
2414 1.909972389320802 -1.5587502593964477 6.929637526301757
2123 1.6374041113477404 -2.2991109108246577 7.068568185391591
1872 -4.730859712974836 -10.297037030532001 -3.1533808014154516
1917 3.6732282855669958 1.4442467365615308 -1.639632284988258
1333 -4.626315178922746 8.388435665503136 -2.6472229286512494
2785 2.046780846815924 0.5094439776333063 -7.743442728708808
1438 -7.2839819824709355 6.523528855556256 -5.449260661124122
947 -4.679620019965374 -1.4145145306865454 3.7227507879178097
1592 -5.64713127340118 -1.9846557458211975 -3.384556368826769
1064 -0.3903232611891042 -7.052533208939264 -1.7669099424595849
1074 -5.246418561961386 -7.35020383626727 0.5216488898254048
1733 6.268637244001517 -0.04376131277617215 8.086417745132751
1420 -4.971136577370266 1.5560585670675404 4.789769438020549
1005 -10.226149966566084 10.869024002399582 -0.9626146217253606
1543 4.14513242943383 -3.360809932310769 9.042944511814774
1464 1.6420256979931618 -5.135527618317613 3.0400972790366625
1312 -8.525364806129534 -5.819763552678852 5.966069815393871
1771 4.682072422297899 -0.3900272120829349 -1.706687364755858
1850 -2.9466802324745087 -2.8727913779037832 5.982438755924357
1903 4.570714002259034 -1.3834377910160573 0.5218044535456692
2009 -4.788721235285289 -1.9185316127242773 7.055271293373975
848 3.9922580900149245 8.91186700904732 9.7038369940157
1699 -1.219821163789318 2.2065685496952874 -7.754970366869427
1985 -1.9193295689270757 4.389093968584182 4.629859352877225
2535 -2.933095028279423 -0.6383612639862399 1.4911423552444203
899 0.3299625460432539 3.34751454422182 1.2910314675267514
1372 3.618522414167655 -5.616614345089213 0.8604056661882507
818 -0.8392605010359846 1.5727534442856999 -6.41765002320177
1793 8.102785914444945 -3.780287377135334 3.2372880168324207
2053 -1.661231830485023 -3.4217826042984276 -8.78484177722915
1223 -0.9832795059729972 -3.7762030538023867 -1.0665869305692859
1221 -4.6671983585247405 2.079685905729363 11.977741216112625
2630 -1.3407925534316034 -2.173429139979524 -3.2768045766248957
629 -4.942274816690639 5.506576540888274 4.234272727765639
1017 -0.6694514269091385 4.168447254102455 -1.8046727192579193
605 1.376511652644322 -4.102948343979445 1.9239628221269789
896 -0.878982151944352 -8.276735767372129 -0.10490781882250237
2532 2.441465390418749 4.661265176998155 1.1653961010900324
889 -8.851443199442432 0.06014074995948873 3.6919367106440544
588 1.2242284171147788 1.195536107319368 7.075031499962483
1607 -1.7217976182042918 0.5599027085892996 -0.20307386061064556
2044 -3.2744967795511353 -4.7941165528028 1.0541068608966258
1741 -0.4886679946586734 -5.346144330386491 2.2498625811141557
468 -0.6878790181980805 3.4486353931743663 2.871610266728508
2313 2.08931990385435 -0.24782640747529702 6.468285560307067
901 4.440122135658667 2.9505379705370385 3.1500990432509988
1075 -0.38816858476877136 -10.075137979846257 -1.2770782653506383
1709 12.778197640570104 0.9045796543080664 -4.000311224816685
2111 -7.853406880894744 -5.266525514883047 -5.764408622329227
1232 10.03149271497417 1.613620039358267 5.693363815283599
733 -3.1850514339342113 -0.12271384424790598 -2.8258692060629604
1108 -5.98661092706855 1.2840290747687548 3.8396609941199573
1879 -3.051161105239744 -2.921302489823793 4.568162168965433
1388 2.2385846451467124 2.902054233258733 -4.706894360395039
1835 -1.1398527741687015 -4.768738640988704 -4.0247411612167685
2435 -1.7498649430412136 2.335438328591036 2.5998510834594133
2988 -3.472803787756928 2.76050590493335 3.282958192011
2573 -0.7680832935844325 -1.951747009304527 -4.403342697558126
833 3.4414558731901446 7.055081798571508 -1.131077469733809
1349 4.898371531887549 -0.9518854893432582 -4.147225493768944
519 -0.6622126137119011 3.354491761006339 5.883637098914188
1179 -1.4194956313177518 5.554836887972875 -0.8290059101902953
1329 3.499808504263128 6.592606589492001 1.6239206433128643
2690 1.8827270282688113 6.736627517913296 -1.1211424798399223
47 2.1983862019798757 4.124026989268023 6.394763950951324
2584 -2.149015437218324 -4.538065346352654 -3.5980259749354278
1259 2.852930555870641 4.331236198141824 -5.027953421042154
1146 4.339806712420562 -4.384824389159712 8.480318673621575
1598 -1.2850467404853032 2.3699660543081533 5.777301893814411
757 -7.814780519095172 -5.347505420112049 1.0097859907084534
1373 -14.313802180155578 -0.0049921326556776925 -3.296893904889939
1621 6.112002810981511 0.9850170574287376 -8.784750506697367
3005 -1.2090324609159822 0.8259642758630337 0.28572788327006293
1065 0.391330055220097 0.4993729580838362 -10.53266172040123
1275 -3.5912992657953766 6.771292024402046 0.6392809280814225
227 -3.7963186311668666 5.70646201710659 6.395985745907821
1526 -0.007836887873428799 -4.08805969479539 1.09671549110259
2350 -7.697481813817054 -2.174381479278816 4.029144159783752
928 0.9320559898556878 -10.113278461017456 -3.6440545611539443
1150 0.2980380358852757 0.4916199098427354 0.74305508002917
1534 7.04505750525649 -3.6476332810346888 2.6863125744671272
655 -1.7575743015391452 2.440140599546365 3.5869853447639204
874 -0.865294854479689 -3.0855950018974876 -1.3065613583610363
2468 4.143999334560279 -6.440144443462899 1.7147737304846282
1063 -1.8547384810608374 3.7245984703406707 0.981995914545525
1187 -5.162136730173352 3.7214038119613493 4.664540078021724
1674 -1.115586448002664 -4.487468107067544 -4.619604577168095
1062 1.9441440249362323 -2.6590324405007055 -2.269472164023189
43 0.3002540564802904 0.8001278912919908 10.359580957796478
1552 -6.4520576410502475 -0.5817463283316702 -1.3496013497753263
719 0.3254999790255454 -1.6109765373020173 7.231782653165027
1348 -3.12597781007135 -4.728099503931022 -4.4198864169961745
2014 0.3305913760745104 2.880406858046294 1.0887514163414564
214 4.589402924478611 6.1396199977118 9.837308408476625
1364 5.4228053912610195 -5.015092550521625 3.451290978868891
1279 1.0826378625210284 -0.816161679591358 6.321946932016151
1492 8.446254391396149 -7.468119381850066 1.1581505917656103
2368 -3.2177501299514377 -2.174815665106235 -6.765699917363386
1081 10.596315377486338 -1.9776193285816435 1.6979694813521884
1618 3.287130262789519 -3.442361723413901 -6.684762165473406
1590 1.1725586574741305 -0.9006883125569021 -3.21831460155819
856 1.536013615937952 3.616392442547011 -5.516008713470426
1050 -11.790349544581282 5.775827465328668 0.5333649575133345
940 3.4788733169435724 2.383909969595053 -5.5203116702522035
2705 -2.9485362442829564 -1.0618929583216936 -0.8390916429432983
1720 2.6328147190199074 4.797562941195383 2.59011772153939
823 -7.592116457151388 -0.0417626142248136 -2.96702830021783
1149 4.550785361613552 3.270079309603342 1.2350070368660966
1609 1.5580238176793182 -0.5245361889285295 8.439888557426963
840 0.9344984057173101 10.853833814310978 0.29840063492013175
1714 -5.209394778754214 -2.885071372388412 -5.618552930454755
2888 6.541059466679902 8.94256589898628 -1.1982421180722138
2036 3.47142814457807 -0.36585626066321386 -1.0930049291672517
1281 -0.20880856971568343 -3.56535847963541 3.826557458656266
1212 2.409104599098648 -1.4004766628665282 -1.935066853038549
2810 1.576147350511243 -8.562053454222323 -10.616398181278228
739 -1.3680414920528279 2.7685358459300504 1.9978544735191728
2075 0.12521557495978278 -9.290429216889772 -1.6668195334966194
2095 -1.1118489876713074 7.249085624442008 2.2739144611295194
1339 -1.5078908544850522 -5.542295899118743 2.542782351048123
731 6.579587052899166 3.00903232921215 -4.265207060096865
207 2.214112107134996 0.8906838827507144 -4.196212741869462
1617 4.614081512905605 -4.31659239644729 4.198434667329403
1416 1.630166062835193 -1.7921167852013837 5.067767689411132
1012 5.325516320130601 -0.8982951753664763 0.6631035280205899
769 -5.208820181385798 -6.632736684503764 2.549588343718862
1858 5.21798309198282 -2.9829914295867734 -1.075390501326882
641 5.153525936609177 0.024585816721176976 7.808625715603202
1382 -1.6435837754615552 4.077080507383684 3.1200088915644497
1002 -5.419254193728123 -0.7439475671852815 0.31618103611425885
1576 -6.258265403967064 3.628138743955752 0.15399980051043294
2057 7.02671175409335 0.16503781983993032 -3.864530870610356
1836 3.538253955308802 -5.2254461607962215 0.09232619217572846
917 6.0218375507924256 2.6136182118547535 -7.580429679932015
1647 2.9568973237365057 -1.8603320646142762 1.4635615439890794
968 5.852359052346423 -1.868437478515168 7.685164782356859
1028 0.6669095030307705 3.5258550973855085 -3.2627091671660384
1736 5.569476769613806 -0.01689652438665009 7.89120996285872
1984 3.7531207657185055 -2.0599690252612417 5.916542408353992
1652 -0.9124124832793471 3.3082626345299837 4.349733762231073
805 -4.526910093224297 2.5950682551767166 8.110080688392978
2037 -0.2247171343064123 1.3846078006280642 -0.5278414052367093
1826 0.18274901701068652 7.719097231940723 -1.9015524068984013
1854 -6.102950609671411 0.6308829198255317 -2.825905429134593
1670 2.9584240570441844 -0.7769952555845344 4.278095973258585
1113 -9.848976654511386 1.0268159784003936 5.941310267288261
747 -6.253578940591592 5.757121485906166 8.802130823690986
1753 -3.8256950638885896 -7.521166119165311 -4.41468326285439
1385 -2.5760900913498768 -2.8831194757629 3.85137472388016
1697 -2.2641068628964476 2.331090684495447 -2.636852852817958
2056 -2.2759696134033707 2.877424439046074 8.339077216787606
1796 2.160192029083715 6.407100838576351 4.829999658623531
2217 2.8361852738549898 2.875918311270945 -0.6642779476120112
1445 -1.6062107229384475 4.271702285931394 4.047143136469495
1496 -0.6386337568741226 2.503871725566645 -0.15395648559362488
2430 3.024395680706982 0.5087682660871039 2.420165367531826
1157 -1.8635429292092691 -0.6320122687696001 -2.217589015605596
1955 7.994856001956517 3.1802626759681245 -9.037882966208954
2438 2.3633935292840444 4.9878577152970855 0.4621655757513548
565 -1.2074854213638215 3.0283499848530306 -1.4198680349190917
1068 -1.3662999783870555 -0.039524789297822896 7.030853763855562
756 0.4670011389838821 2.8524019175707553 -2.291881165219419
1682 5.968434748302597 -0.678337490714477 -1.5021076555778385
375 0.6099387530339572 9.277230263252994 5.578456561498236
1021 -1.971156969236622 6.598426072702697 1.4156558133668014
2607 5.939877768280155 -0.06883997119068958 -7.059711770144867
1035 2.520863790540444 3.659014072857256 2.168873181381246
1137 3.6758784388754284 -12.285869365099956 -4.484783513523065
485 -0.13067196011552443 4.202139648728501 -3.397535429864739
1909 0.8442408128582032 2.4854980184649125 -4.494040570244636
1797 2.522824678829394 -5.520375889726415 -5.477876776908587
1623 6.2174961024719355 -1.4253848251321262 -7.0274583024021355
1619 0.36459144879278327 6.161659810538107 0.2162306565646731
2544 -4.5553500531266105 5.881622563691228 -4.024839058195562
654 -5.136041551819374 0.7573344158389538 -4.09704517640613
1283 -3.557640147386525 5.551091798330401 -3.294728283883647
1702 4.119741863917009 9.966983113140925 -4.18459778082729
2739 -4.84030463305463 9.91808753394584 -1.9675868651883928
1531 2.2587673753265194 -2.8131259421507187 2.2100863044066115
195 -2.8507080981159905 1.232954775713145 5.431727071964472
1918 -0.14045666823570602 7.773973189858739 -1.2111418499462705
2054 2.0881366987858536 1.9515806035521168 2.26058901666436
1453 1.199672916481505 6.154856910744328 -0.3893714176120352
702 4.326010937892764 7.813082395252545 -0.0656492834975868
2040 -6.525540741235083 0.5867241339410315 -3.4027701992727093
775 -5.897902522540442 3.1569902206531317 7.66263446998129
1727 -3.7297873902287604 3.0601255393915086 0.19004349783770735
2985 4.95812759027281 -0.5576536418617553 3.3788722704863803
1696 2.2434055021315205 3.4745292049840066 -0.16601096644498298
1986 -1.2085185237739895 -0.42645504104254983 0.7996756286831679
1546 -3.7035460767392974 0.3146730361925078 2.849826640015293
1927 0.4919989857827459 9.348981482200351 -1.3481237730195408
1989 1.0350068870499014 -1.3845691430013072 0.21018560686714088
2267 0.5661371984702561 -0.14378725743313997 -2.802208416316662
2161 5.246953762046984 1.685412636428437 0.057227987263383524
1253 0.4941924245051028 7.543842251175302 -0.5488747206140803
1072 3.607364419563101 -6.093310302495074 -0.6344603914747102
1676 3.292174130687389 9.314624550316113 -7.221834562671274
853 10.330431222396266 6.402528006444469 11.664332874572027
1197 -0.8914017611595314 0.9923091385402658 4.8455441850749645
2197 2.9946257245114913 -7.485217309789368 6.735096374253402
1374 -4.804203248463029 -3.87040080122266 -3.1700047087804792
600 1.2881179263985416 -5.075866547266322 -5.0010318187515415
782 8.528880425331298 -1.0340087744910453 2.9680654834657787
778 -2.9905553010570105 -0.32777085606490014 5.717741444324806
323 -0.35530172909113217 1.3436583942679685 -0.4505851232234489
916 0.44693114782493504 1.4829490255756417 4.741621108650984
1172 0.45243268648775475 -2.677338190403456 0.18244861086190717
1365 2.3111177028854866 4.61364381837056 -6.747191605837229
2033 -3.591606282529586 0.4431912335580347 4.3252771374561085
1294 -3.376022122022903 6.941980499506342 -7.148018863574914
760 -1.6502560838757108 -5.40766175418128 2.2195392526474125
1881 -3.7070420695186765 -1.3751488641661718 -7.37927926576862
1207 1.5410256014295602 -2.472398348005352 4.120489415609614
2171 -3.0872471297518715 -4.797753379011072 -0.7480424245751607
1054 -2.121527502593489 5.44757974380651 -0.43108105597163826
717 -0.9650390355918081 0.18090057130502857 -5.49313960982726
984 1.0485710068848264 -1.1873717550269693 5.920689616739711
2188 -0.30138778092587265 -1.9368957250853975 4.648382236211629
1704 -1.272937777604052 3.114900721608609 1.5287520506501542
2276 -3.3436710600572983 -1.96349265122154 -2.7392172447193905
3025 -4.986156718124936 -7.536677899719546 7.607455556085487
2381 7.747768882699124 -0.8850684463423197 -0.4974102487047275
1749 -1.7709414624629922 4.198691674924309 -2.0901930399815716
2474 2.3139863882391536 0.8324556419191264 -8.497928037460039
1508 0.9799450553166421 -2.665917398895104 -5.466683086006514
1198 -4.447937918600362 -1.2210209681523474 -0.43494848946903186
568 -0.8222569014169289 5.1028080764363715 3.183655545304605
2026 -3.1066545086191266 1.007331099403344 -3.6321300472588542
2116 2.3320401182538437 1.8319839843846617 -1.34743151302313
979 1.125309463963102 3.6629002679630984 5.188184393885422
1456 -2.7894341203451405 0.6777206807844544 -2.247491723305997
1301 -5.837532974653753 -1.6711261807733628 -3.608266090631919
1763 -1.7806228748307442 -0.6351647483724037 4.440667099144667
1628 -9.116470372891136 -6.060783489804843 -3.1673101160854813
1673 2.015871201948552 2.450413238130833 -1.6561358166290714
1323 -3.0023263094768584 -8.493450443741605 9.950095682218354
1433 -1.2028294602225211 3.284220763002023 -5.054539377285538
1258 0.6484408593662736 -7.250895746378305 -2.1971452182238482
1254 -4.360368879535154 -3.921282528662292 -3.7247682580023365
2126 -1.4546788013940162 1.0389685050895727 3.079836037881288
1316 4.45633343249909 2.439014094812922 3.5513582438549376
1130 0.06857444787409459 -4.2986308978640855 3.356834170245674
564 1.1672685857988523 5.597708941926599 -2.1948963662234027
1206 -0.24396453952807212 4.118513921243512 1.9727579957683485
1468 0.012342651479250927 6.736755195052666 -0.6984997318912837
2146 5.672992790090329 6.663329035138732 -0.5706936390247552
1518 6.129102581711233 -1.69331601584554 2.1816847499991687
1104 3.0475543289382685 7.35784332969422 3.520700525829922
1144 1.859492916939388 -1.0359254189891183 -5.604763410256644
1599 -0.7549030908509553 3.644354190989159 -0.5300118585389517
704 -0.7191810435807677 1.327364238400934 -4.165437263884051
1791 6.4894985156977 0.36999479278749314 -2.7788451511902084
2802 -2.6594744775136823 4.573405739579147 0.38450631232009924
1239 -3.7607790762292503 5.194927862698742 1.5709786339508756
3269 1.831692574990487 2.2203629435227996 -0.4630719182882271
301 -4.181976355297133 -6.8452514218887375 -7.9965426069572585
1862 2.9638092935497964 1.0082785525257958 2.833843210255141
1723 -4.026255954776726 -6.508576238334394 5.376494187451725
1996 -10.26237309095809 -14.015250445403689 3.8021509557184316
2018 -0.6374446018641703 -10.478108660045647 0.8965636598996283
975 -4.787729641496269 -1.2569936961549066 -3.821825421555558
2269 2.0053645330866217 3.154171613534346 0.0668773973120732
2016 1.3175021790213233 1.7527095469678213 -0.3442495800868882
844 -1.8705130435047383 -7.684342717686506 3.7179278289296307
1047 -3.328433851229517 2.1163266324382675 -3.670861516258407
2458 -3.246460486357882 -6.03835392599352 3.912096284223325
2323 1.0504253199271307 1.517622704771061 0.311331191874336
1290 2.553176708141694 -4.028196727787053 4.391177352540678
2261 -5.906018612670219 -4.163678844681243 -4.892971615675801
694 2.67118779129871 10.705563189950377 -7.297356717163702
1572 0.9535787826182676 -0.6168051918987436 -0.8346363915174319
524 4.955636680599501 5.558089058079122 -5.972259263357967
983 6.72601045671821 1.865888676798978 9.26410360582717
759 1.6461790168412684 -0.1894471066126675 -9.033497398846484
855 0.6786883070773755 8.4411169925681 2.4125771598805317
1460 3.3962311176192044 -10.989967127340945 2.764718490372828
1371 0.9832958390980087 2.673655296016088 -1.7255859200632604
872 1.495993860777347 -4.942749287601877 -3.444605309928825
1542 1.2992538530697884 -3.135360938226414 0.02903421091227648
3317 -5.919010473256185 2.2553909166388864 -7.594645661952218
3000 -6.261576438558116 -2.5130606161585556 -0.023980783961676494
126 -0.7835171580412658 -2.8988135541649442 -3.751642653095786
2377 10.500705259867352 -0.6385355999234529 -9.695387570704488
2917 8.510966564214693 -5.189299695818379 3.8390416871460853
1106 3.7495931855385254 2.501526859165459 -3.6096480029465967
1792 10.360315924759803 -3.3186027963353055 2.7295082579727694
958 6.526153659696383 3.6986499329297406 -2.805368237967693
697 -7.3288816368752645 5.92456294178445 6.352849849581999
1444 -2.0958504322582185 -2.0339837808183616 -2.138651621881769
277 -3.9343728435880267 2.6080249701272837 7.8193425556670295
1227 2.8483559197692725 -9.763582454940215 3.475199205780423
816 0.025316940448390727 6.055367630388748 0.4800621355967894
1442 -3.2104004499132768 0.6089278580979612 -0.8529964078614568
1633 2.980918941737023 2.044032241457155 2.3846198593988466
738 -0.44476246874847936 3.58979236412943 2.084066297892993
2318 -12.148612193670315 -1.3328265250346976 -4.695655111260392
1814 -5.945566842283625 -5.56472026030775 4.578655263177628
1710 -2.239199969522922 6.778498038453561 1.4769576082145413
2320 1.0613410611908425 -7.893358003399393 -8.455792503028118
1539 5.416577149010435 1.7863983980049818 -3.8853003259059538
1069 6.238422050761369 0.9704244389265829 -2.9830431014079473
1334 -0.9337173714550776 5.0010135183048785 -3.7650037659557265
1711 -3.097683908104257 -5.4724299519279205 -8.34853790056402
2969 -2.864865274228713 10.45289835289831 -5.726796128173562
1608 -3.2694195265336634 0.12078900947892858 -7.617440966025274
1435 4.647530111992576 -6.501863339060918 -3.655994549098581
2290 1.7645790330965359 -7.576463411175217 2.2474951047586824
803 -12.028042496081726 -1.9851031764915255 -4.325261225816879
2444 2.6130224668557327 -0.47017716028954293 5.60570497701062
1138 -2.699398119527912 -1.4607057508737171 -2.5986473337962046
304 -5.185407509051389 -0.4394264443597053 4.4325871652862485
2000 -0.6250580577911737 1.835749830326402 3.7668853467434595
2024 4.2321244272008665 0.9725050257295317 1.6553113299777567
1494 1.4940234986413004 2.009565512843713 -0.6268905896424711
1781 5.222800712223995 4.593126380305226 4.0594512663602265
1550 0.42020324329502184 -6.540844561760834 -2.116351827018971
1168 -1.1878284813137905 -1.0203784494848822 7.690360501921716
1031 0.009730381638266755 -0.07640257121081342 -6.5488488383407875
1211 3.2603697788992414 -3.0929517735346392 -6.015110093543707
1397 1.307060905976147 -8.136981296229651 5.939522220411257
2105 1.56891978004055 1.1458519421730682 5.260429432311536
1581 -1.8951653185865056 -1.655658993058906 -3.060911271303592
793 4.611833030581797 3.253924186949787 -3.7799464266756178
1993 -2.089359252011028 -7.453974303519142 -3.7221958741411014
854 9.04571013820098 6.045185147391678 -1.443605246777868
971 -9.227989884503433 2.4103792793641734 -3.0489905090663094
1082 -3.5008696260442953 -6.347722733493039 -0.9300888616857393
2942 8.386397145345864 -1.641258925351302 1.0900698491566352
1013 -1.47165250809397 -0.37894449695660404 2.9397756033431754
906 -4.326130274559981 -4.360064870647669 3.8863774647383806
1502 4.24581448773933 -7.500876406717112 -12.00702719104159
1571 -13.454494450843832 1.0228727745137345 2.4311213188966456
1304 0.12439564108676576 8.040518262896581 -3.8116321223032603
1893 6.35308776017926 -6.463403509753061 6.423201721867917
1857 -0.6031325322983323 -4.212624015796047 5.239001632986318
1750 -5.129073725361787 -1.8261395898438628 -7.74138274761703
2303 3.225675647817211 0.13504652733420533 -9.280181786699613
1770 1.0550071467743232 1.478327144572895 0.8463489584499615
1441 6.092180890765721 0.7620933817239872 -1.6598677186677164
628 0.8218432781867407 -4.632937780062895 -0.5620260692574823
690 -1.5345112603463993 -3.183464404276446 6.846362177852694
1737 4.145180536590396 7.5113731809190005 3.9115922157403133
1597 -1.8070812446500903 -0.21657059200085624 2.566562616781941
1776 -3.593503656313643 -3.3808010006228137 -3.540467399273574
1006 -1.6469285846010757 4.134214358000012 2.5413761361613156
961 -9.235738379836 -4.6009290184637095 -11.734242345917986
332 1.334585724924105 8.594244994194607 3.413734526153331
1718 -4.534816083657916 6.554329612599278 -12.5127278311337
2498 2.8689351121270823 -0.15457481467844272 -0.7904302707695601
308 1.9269257337382228 -2.8112518149562313 -1.6594749642337119
996 8.29159313502727 -1.990052605898868 3.717087362821566
2356 0.29031188332288005 5.687815010592721 -1.1974354262505662
1530 -4.3475665373369345 -1.996496168290691 -7.12876931939847
2085 4.079145491571555 4.482443045367249 -3.7393761670648824
2001 -0.28131808986520895 -0.9946388824889415 -6.359608716373426
831 4.8106952994987555 -5.563242728057645 -1.566627115431791
2187 5.006396054720909 -7.668592721723294 3.621454182167218
2759 -0.2898504314688074 -1.9258135875086004 -4.1900386539721035
2245 -5.2788131761620205 5.47883098789609 3.176724306307246
1391 -5.520184450328339 0.7350104060816871 -1.6328717105968371
1354 0.31895369652810424 -1.9345438772078802 4.582478317201213
1874 -0.9961347932287737 -3.135098746162157 -0.1429888175194081
1914 4.790432596927752 -4.690911281264994 6.424097224337098
1162 -3.9514612583272046 -0.8345941221197264 -0.9958814124906863
2358 3.6205785314579226 1.2677638022300075 -4.996112360469305
1622 2.450528831522399 -2.5825586283184987 2.8723479560462675
703 1.812707188909241 -3.090413020734907 1.523462244328995
1540 -7.527715637064832 -2.0179699358165735 -0.06874542418950058
2021 -9.971138481435398 0.416900388280219 -8.500685008725478
1184 0.19184631849057762 2.6914640288935505 -3.9123498008955107
2082 1.2979766444088308 2.538852543387531 -3.5070208077387726
2137 3.896981591755366 -2.04290164132392 -7.884672458979273
2371 -0.5916525878708749 -2.3001323432350165 1.631174632894594
1233 6.000418972785104 -1.9330253468103744 0.1322705210301589
1589 5.559507177444134 1.601075237415098 1.61358725320506
1722 -4.5817464659325395 5.368315497354102 4.3315370621841875
1777 5.676230596541553 2.3437264777066704 -6.513671375835266
956 0.5462075990901702 -0.7310358960963681 6.143430257798602
2824 -0.2434443366834391 5.683999746818676 2.3487760487157097
1774 6.269923767487145 3.2521355740324065 2.6094292254237645
1332 3.238435189377321 -3.826974877265587 -1.3206351401584155
1317 -3.86626906568782 7.423184654777106 5.454491253903495
912 -3.8588120192232904 3.2677056345315005 -4.091575946927103
2419 -0.8549485832486355 -6.109890810951349 0.6754703944314846
1643 -4.684223729365302 -5.54350941248753 4.8463573727820854
1482 -0.22339705642510155 -4.4118187445335515 -2.2973266686014937
1201 4.120052256751712 0.350745142636705 -4.26266493519711
1890 -1.2509174914046002 -6.963688906893844 -0.4888290122567437
2328 1.884927761780237 10.083985347157212 -7.760728319110723
866 -0.5551138065600336 -5.474840873969472 6.078422997676558
1946 4.130323909939266 -5.72466465582912 -3.6118708331025124
843 -11.847994836188999 -0.7295044640513174 1.614708370801262
1535 11.628920512853037 9.368161064964383 3.70139822367507
1860 -0.7599481764603593 -1.4082578841475077 6.427783346965217
1913 -6.952732763048004 -5.126195805389814 2.1445583146412863
2316 -9.423456241835005 0.8107959728036552 -7.456563786739712
794 5.033326049667098 3.5702756834023766 0.23501824402267085
2022 3.271764907788078 2.684400389549864 -1.8603165303044429
773 -0.596908377517916 6.241665533665884 11.049289232724702
2291 5.197763794566703 -2.496149615746829 2.13856484610486
2533 -1.5987083063399843 0.737495716769036 2.715297022572779
2129 5.595434910450601 -3.492712542138406 5.830977187463806
1762 1.2861985386643753 1.240061804736087 2.4303127276480834
806 -1.5081609078859124 -7.336992296617381 0.5296963642764838
2786 -11.88420050015774 0.8538696495557047 -0.44228201090530017
3011 5.063361056770336 4.443081283569702 1.0937627774010428
2127 1.9311863270564578 -6.179292528414527 -3.8594187606467134
1569 -4.041344833450133 -2.8585210484526042 -6.244888915969105
2494 5.0494731538130475 -2.634426557333384 -6.038805342720654
2357 3.4141935797114478 -0.8810137298799794 -5.899144465336865
2297 -2.0826768873712656 5.694319949797408 -2.8576201180494447
1100 -0.6697141346574134 3.9361094401658736 2.9905211108722773
1558 -5.12654586121935 -2.2021177337783224 -5.857642044898613
1968 1.831016770841131 5.495620691456428 2.8912095190607876
1236 4.9767125303457425 2.9182872110718043 0.27471411144128494
1944 6.505117483077306 1.1495224023708683 -2.8545242053062814
16 0.022869203113583043 6.0961646360451045 2.334069267205561
1650 -2.9890003094479463 -11.475712535100618 -7.75231127577039
1489 4.3629749689135915 0.18484366849972111 -0.13642386259724915
2310 7.765530102336052 3.113141599811553 -10.490078766329804
1222 -0.5155582418397615 -1.0265391406497728 0.7129950656492101
2028 3.6589108531187504 -8.433680814222217 -6.124354066591755
1842 0.937590219195139 2.390907667375819 1.6780717520114399
1992 -7.893901073320539 -7.325690943026976 1.199999125896814
1260 -0.8509372496783064 -6.99922187729624 -1.8004102010534584
1528 -0.026819164848254542 -1.7648793420528144 -2.638618985953934
2224 6.107401130100419 -0.6788965418033854 8.034307970439798
1649 11.003933784851212 5.590391891032605 4.367702858866792
1659 -4.958514164048545 6.793560301362133 -2.049715940043063
1513 3.6223175447807083 -0.5268405029812353 2.5022154904855016
1103 -1.368716724797304 -2.0929549881693643 1.5021731428232035
1901 0.3823818819904691 -0.7172330614347482 -3.6110117583643713
1417 1.0821522454712402 2.5886949643198283 1.2399138642673888
125 7.92331466211049 -4.979643735555692 -1.1437061936442914
1594 -2.3953526773713594 3.0348253151143876 -0.22249360985934166
1287 -0.11417353378856196 0.7022864476528808 -1.841037314931405
1988 -4.118450203100436 -3.559569937344871 -5.860422006014491
1115 -1.0677108272083369 -2.75529345319838 6.370468505385758
2376 2.005129093857716 -0.5770034426983689 -11.434210844130286
799 1.217331540407022 8.13323439657368 4.377091280266988
2701 -2.424995106251825 2.4597159359316554 1.2024670046775232
1846 3.3261486706702197 -1.0274605911319112 -2.7703796482652687
1868 6.617055713037695 4.717472549220901 3.38408505745937
1974 -4.232440929309291 2.3298446964615223 -1.2643927857495827
1841 -2.588982831860003 -10.591081539664982 -4.392984639936884
1915 -6.68595147898773 -2.2420770556938328 8.40128481261415
985 -6.979390796535568 -2.6686627855268314 2.1283884037537324
336 -5.0239924896160755 -6.964998574413939 3.8274012015698995
1803 3.1213340489821015 -3.1812870064318273 -2.3171110812232083
882 -2.4534024770640075 4.90854051326085 0.2819793540194739
1353 -3.693804544327334 0.18742409070631877 -4.570840539252022
1876 6.571727772552661 -4.814361655517744 -6.706356334887771
1315 1.986951539795113 3.560940790467502 2.418591117346519
2073 -7.6203677122897195 -3.9448419953590146 -5.949253103063157
2469 -2.5820556353569812 1.1208117783076446 0.06040421378890905
2108 -1.9251378821943337 1.8521876507106783 2.381923392752948
2160 9.252764449844983 3.0083375250669326 3.865147177031686
1394 0.9230265308475315 -1.300524036352552 -3.3064750973767087
1809 -3.3740622205562256 2.0948167454542306 -1.997487560160176
1735 -0.9649138117626458 8.946042228027324 -3.816770660631175
1972 -2.2045684546174487 -2.592456019333831 -1.31068399388471
981 -7.992710374401986 -3.1586312711313527 2.4987136987385843
1574 -7.5573601913333475 -0.33813852449344267 -2.334718912085472
521 10.469832489702023 5.040381709642214 -0.48209973299357595
535 0.2858988770944678 4.252372122976532 0.005264767253225871
1303 -4.4647008773842884 2.816380822000161 -6.116705726174424
2960 7.1528777252100015 -2.4080812222820436 2.8162182293693157
1454 -2.61233072345309 -2.6828813112902785 4.410347516915301
1807 1.4180959359694942 -2.661452153666829 -6.938134386347752
1816 1.8568513710628172 8.19585399866307 -0.3929492296991343
1969 -4.294104064550283 1.4420829242031692 -4.368196720621295
2814 -4.525412319578056 -6.131160315463409 4.172445955848244
1664 -8.46561486212994 4.360052858046347 -2.3961286040183905
2237 -0.9859177661050477 13.410746226475453 -3.3149055555452493
2150 -3.333569933644314 2.9140864983233157 -3.916495738757541
815 -0.7996339544186201 -2.1521291247598837 -2.0013117445673996
1838 -5.917576175892547 -0.47070458516569613 -2.0755329157155167
2530 1.3375812215107938 -0.5515441196132381 2.116456306784859
1637 4.536550391284995 3.938817692687886 -0.5767354861612244
2099 6.056678165452815 0.7178774743087706 -1.6066564803411199
1582 -1.563356046975753 0.15262611996632724 4.99530304189262
650 -5.439105764847136 1.1169230777727213 1.3729784554708406
2254 1.8853223403800163 -2.914336455674333 -1.1214106090148048
2106 -1.0914349357920756 2.6762383153705236 -4.796269698500827
1739 -2.0156679649679896 2.5979872579259675 3.888512083021287
933 1.0827168796318563 -5.041265319963854 -5.233357214838324
1973 -5.723144995462751 1.1174103376553468 -1.4190014928718258
457 -0.5746309212102487 -0.2583938718335525 -2.29538891970918
1342 -2.873178640272552 -1.4580401697340366 -5.89970224337293
1319 -4.144630097781134 2.1795742429801916 1.6588275509077697
1721 -2.300427900305373 0.5331092055730058 7.057702079526841
2654 2.935320855334567 -1.4629077345631427 -1.5681038227679105
1406 0.006325135412562355 -0.2057103473034811 -0.6979693700397134
2461 -2.6319229897527006 1.618881777345265 0.08136854254193879
2625 -3.546550915862358 1.6036743149077612 0.2963534602629664
2523 -2.335770347525969 1.683682996307462 5.869148789373923
2689 11.831502881087403 2.540850268229473 -7.474968392885981
1076 -2.346239778965762 1.1740301258899486 -3.1479029397523326
1567 1.9014341431194284 3.6560246856927434 6.657958117185415
500 3.7798825471796644 2.124286230879261 0.22536045602397395
2914 -7.170248270925848 0.020573967388654205 -0.4655699670916021
2464 4.052781271585381 0.6634135931932104 10.849031813543005
1419 -3.23433840004674 -0.9318697478684695 0.813966156270324
2902 6.11076836634962 -0.10562488587380027 0.8523964330667048
2234 -2.9892415340906 -0.379489151050573 -6.3908857995075925
1615 -5.233521639195647 -6.012609155143012 0.2889072278581222
3059 3.540436262742566 -3.6991394936822837 -7.942999159579682
1461 9.726201790900744 -0.40962885393372683 -2.380511242183865
1478 -4.42541549620476 0.12249890071705108 5.27397751746936
1383 -1.610576553826659 -4.948074316923871 3.5094708899218103
986 0.9115489168412767 5.027272477831111 -2.429306461074388
2210 1.2471690205543757 0.21146642398540322 -5.509190119918699
2223 -2.913455648311712 -11.117542334886307 1.49178362500238
2545 -2.8871978609208213 7.0537882938887 -2.340651937292895
1282 2.8709948321243672 -1.7932300184349514 4.81598041907858
609 -2.4599927895818516 -7.132167252111865 -3.278323355687418
2408 -7.1207288325876945 -1.9891344539097142 4.815124336384653
1276 -2.3208160600316083 3.9208557505298627 -2.276922292025957
1626 1.5580492974939781 0.8982214204573931 1.4810349806170844
2537 6.917844128495535 -2.152422322685618 -2.9742564854893
2427 5.556598943971204 -2.742748177200423 -3.2090104014318452
1490 1.0932883001648275 4.164956262396575 -1.351615369852464
1010 6.249861669974306 -1.8372922854879552 1.3775237126717312
716 -4.399991816127009 -11.255587267665417 2.1855954035718317
1335 11.230181145065286 -0.9086332079969952 -2.7642652548016993
1675 0.2779125445749199 -1.9150391709958279 -0.9123611796454998
1523 -5.934356797684167 5.895389136249614 -5.872793559607752
2915 -2.487079468204737 -4.4048861933813 -4.581444414422061
2169 1.0509450555940996 0.5654375645259778 -3.0209602629358896
1936 -1.35037589699485 -5.858979900838744 -3.07432342188894
1805 -3.6141059012602224 1.452546821663605 2.7281573918846878
1432 4.456288541514834 0.16644996342966104 2.9352159430297826
878 1.5394926012840708 1.2995987331352292 0.4133917741354633
1314 7.6268571813502195 -4.022424396297611 2.185510381310233
1754 -3.5493653335219926 1.2124922105444775 0.4000907930905815
1501 -0.4279841041044702 -0.0416210183104935 2.62320227029709
2282 -6.083269147828088 -11.000611698654907 -8.379988827410068
1326 2.3516246471167244 -1.537502714561894 -2.7762148261859965
1356 1.2023370267947548 3.3799411868415943 -5.640399013694968
1215 -5.124655946857186 6.99861593437751 0.6500752027291941
3273 -5.565683752029042 1.2564200178950788 4.539333826956978
2500 0.02168315461395913 2.2426388194741587 6.767472155398967
1325 -1.6525535254321932 -8.854037573224954 0.8200524906085332
1392 3.6036444369935876 -3.593232538754824 -5.442643754586122
734 0.5184617132678527 -2.0048361046816945 -0.8363563346273342
1430 1.8256674578836003 -0.2822864298704513 1.638791505937206
2101 6.0318809797335335 -1.7738636984496563 3.0633514330521745
990 -2.9521027319322486 6.326454952461412 -4.03595123556348
1979 -0.4102312182910804 4.458308594112939 1.5456384653640263
179 6.217903615760683 -1.4670837863978197 -1.049582832638939
2385 -8.03807377575712 -1.162936810526788 -0.1499105078257216
1604 -0.7973615320011205 3.5320536844879746 -4.628814518318575
1634 5.573243956510691 0.07307170377142924 -0.1886870008356984
551 7.368700542375999 -2.9833898768304143 0.6878686782430316
2166 0.6384754914559043 -7.151412650178441 6.298188997135332
376 6.477308065503027 -4.776777676857073 -6.791381982381694
1428 1.093495291751151 -12.36996255804039 -3.0434881362842696
1560 -4.537376473817162 0.9578792901332411 7.152789352614283
2113 -6.381671650879036 3.3895784693788875 0.9817102642912543
1772 -11.220616105805508 -1.957859697604843 -9.034575634537449
2182 -0.9643046638736795 -0.5215250729951321 -4.196339890439256
1439 -1.2390009575155279 7.001773072306298 -0.5123158651049099
2373 1.9855509564186116 7.955763157207019 -0.34557826718114376
1669 -0.21382934617211236 2.8628270106418086 -3.070484218092495
2388 0.3146168196524282 -1.1364711075562701 -1.8984597581408922
2206 -3.6102141857614787 -1.6564135792225005 -7.288274160813343
1160 2.800207849783397 2.502453901410621 -3.0082262069188506
2086 5.223346123102648 5.748289692361247 -4.2497245710218525
1516 -2.06023569616346 -7.805859384335736 2.8754231826161276
1361 -6.992580894707589 -1.7192282673184427 1.87970778037175
2872 -2.13435138065103 0.9695914088827222 2.8586812735752556
1032 -6.65858414890848 0.4709907448848062 1.0184358690706625
3054 -9.046882229610919 -7.747948731045708 -0.2825236767246489
673 -4.5810300242430575 7.058381294349638 -0.7977822645220864
1930 -2.4341989883458592 1.3706822654206348 -3.252542478205063
1204 4.00281797497069 0.5475142087568898 4.418430217935257
952 -0.8968694230801627 -2.133952254839644 -0.9115743209568477
1595 3.8409415289864404 -3.5082204891834343 7.547322193269249
1747 1.9126915851573751 -1.3316694664415463 -1.7809842486054632
2703 -3.6976068304095913 2.998224935809287 -5.084928438141475
2378 3.0100915310221064 -4.4112019654193455 -5.1123516674453455
2178 -5.702519588619628 10.618699579454512 7.810196766489984
2948 7.600956530130394 9.10870752458128 -0.5257405732447852
2149 -0.4103056446309493 -9.730001971485123 3.1052157939484792
2308 -1.110084181452501 5.872509945095189 11.743208389068126
1683 0.1692293276561868 1.1407742997459223 1.0774899669773064
1497 3.8407641862706625 2.0654030855114587 7.300258743488044
472 -6.2023045480073735 13.375292992037398 1.5643248161320098
1795 -1.4500875092231464 0.6781606435961619 4.877236940110512
1358 -4.410135946359061 -1.7337533988141107 -7.756256952319467
1087 -2.597633541125474 5.860906581921197 -4.212808411431993
2049 1.3539412440736076 -2.359551618473182 1.596858878116288
26 5.124554886555688 -0.47622991414478255 4.179583093017228
1153 1.3364736900450873 -3.622511900232901 3.4693161741650598
724 8.040836981211493 -0.3778971290884556 3.2294559367483675
1249 3.5590388682511045 4.959149371201196 -3.8210828227260656
2816 -7.287813399434462 1.447494078924626 -3.505104799806715
2038 10.857270059734452 -1.212426826135066 5.179306897380889
688 3.5459439180712 -7.199098419789063 -3.3378930728585994
2183 2.5255006556898936 -5.118602414594103 6.237992832212485
1755 -0.028843851102378294 6.100362731524191 -2.9513009839195536
1289 3.586436814654574 -2.8350719560789086 -1.2431909585179317
1994 -0.21046985287259357 2.8608555370801954 -8.12000539711905
2015 -1.3409091254181624 -1.111745152029482 3.5260537531929788
1928 0.05383268995480202 -0.14204666189469278 0.7493866965714451
2354 2.602821522336376 -0.8105872155308467 4.202081688951474
1688 -5.180917738269678 4.173412662277163 -8.348510335641446
845 -0.2821540119756164 2.634538608459606 5.3831625294830285
2546 6.309750034675669 0.7998776321357904 -1.1963567940382636
622 4.289850603804846 6.10310354335235 -2.2622623439509817
2068 3.6399743042583874 1.4640166415450393 -1.4431589901019712
2175 -0.7015614322508386 -2.7627828897510156 2.2104156254690244
1624 1.144548074455616 -5.5054324542677575 5.231635107137605
1387 -5.409515198752414 2.8626479749569773 0.5741069101377718
2172 5.027393075394904 3.9265942040629493 -2.508889500245439
798 -1.413369920419117 2.1164040654777914 4.101764943247127
532 -3.5412931840366078 -0.48398866262895757 4.909402841457833
2482 -2.270400707149495 9.169704490651512 4.295538272826243
1359 -2.243460416040343 -5.376235447666064 -1.1723829111023893
2207 -4.919197493662108 5.185042181641269 -3.520889147996492
1521 0.5958014497998119 4.856910493931422 -5.155579280023046
2484 0.7234124668765514 9.507486686267823 -3.4982453082551914
1564 -4.862015304049093 0.7864261458926574 -1.7096138315627536
1533 -3.568662177266698 3.0125606406928185 9.710971954583458
1469 -4.899794904138146 2.9764843038573634 5.190362868380842
2139 -1.949855615616709 -1.3422879102091918 1.306297476388367
1393 -5.931477602755481 0.43814170475606695 2.881212689283764
3051 0.7915559753843939 -1.116269919853921 -4.8985564890452125
722 -0.4589852858289824 1.4957646411612076 3.549794242136659
2529 -7.364016164993243 -3.9876869472526826 -3.0609056113121342
2723 -3.9330595386692906 3.1701682907807607 -4.956447526946317
2574 -5.4924504901176014 12.088590320810258 2.974440703931551
2426 5.938500040116053 -2.557042505448371 -3.5734223291601923
2167 0.12523055759881413 5.68679070906141 1.434153354337207
2626 1.513603544283147 4.944617075225232 8.188514194249114
1280 -0.32852499653050293 6.786763167181644 5.014363592511526
1654 -2.5436578703281647 4.7862264223374575 0.6695791225179486
2055 -0.3742197358699352 -2.5397640619953514 -1.4905785881879263
1357 5.467554098129343 -3.0865058128425322 -3.6977669621659577
1891 6.908289247154727 -0.9501223345894124 -4.513396656202604
2117 -2.1025143752560007 -1.3788474270687394 -5.528033960767762
2534 -11.997505176279548 3.5197332490590427 1.3041589876799016
2859 -2.5301821929604267 3.1796114403528386 -2.6842277056385226
708 3.2232798981493893 -1.9231935906832052 0.4865936348107003
2429 -3.37722967526411 -1.7234274036230761 4.63351453301036
2170 -4.671226383807039 -2.7554243814428268 -8.025594967927557
1199 0.8364435769265239 2.9285920312435647 -7.780650930877962
1235 4.520700264100847 -1.8617795407892956 2.4072884342994745
1077 -2.1355515817821824 7.366447635487059 8.315635851840732
2585 3.764697918704584 -0.8740871617154414 -7.046169851662118
2662 1.8454234239259288 -0.02684883065362062 -3.5191950430395105
2193 1.5016615857477278 1.6433133806441034 1.6096895482551712
296 -6.390393359240205 -2.0071181613575506 2.7318604167981317
879 -2.1281312759524003 -1.1126826534461502 0.1530754978617944
1167 1.1974669298283325 -4.934068586290324 3.412264102452771
1060 -2.7751653514713865 0.2133284853195754 2.8153636560429667
2471 -0.09381883811628955 7.607945398819795 1.3763208011684098
1505 5.4728912444185545 6.186802966910646 0.3167067742819377
2417 -3.1750657812396685 1.5516156063377327 0.5283471963661664
589 -4.836876155637994 5.623991163030612 0.842454616605635
821 -4.6379311586712 -1.5487375287836942 6.424582884716713
710 2.314143067751019 1.2264325117227322 -2.90561211790582
2314 -1.1347829090939663 7.0294522808995685 2.786802142589681
2078 0.7106050912834059 2.678774672628118 -5.165700490605394
111 1.3238918948615968 0.47760124763488593 -0.962854647663171
1922 -2.9168490385541666 -5.001145985564881 1.2474034004549903
1758 5.849770805839526 1.7870299090243797 5.272234554281016
1487 1.5383523209281753 4.49800369642954 8.305774379499477
2140 7.074126705064374 1.573133381337245 2.8184068868318817
1194 -6.9982652787077795 1.9812900892475422 1.4820335487052685
1645 -0.1635718634800542 -5.248472181733103 4.750934103675016
2023 3.7468519797805904 -5.515138752044675 2.1245675901591183
1705 -1.8072485093744128 4.564890828592101 0.049554638468412765
873 0.19299050322850553 -6.590270215134508 5.400932063315287
1171 8.428031842579996 -1.5893787678189832 2.7521953507475603
2043 0.30202645905055175 0.16599348423166968 -4.002297252606977
913 1.0961733655760615 3.2926309247373586 -5.270369573458859
2138 2.1612977157241424 -3.1388561381290407 -9.407929577431863
1147 2.0496714154547204 -0.2602984418985124 5.332801042326961
2212 6.590362378069429 -7.555035329174301 7.172876817042158
1226 -4.387165367107962 8.419131761103307 6.51110449638918
2152 -6.045710204123358 2.881667855290132 0.32607535720113984
729 -1.2205559488286528 -1.8514908144587978 6.2602616537593265
1029 -2.0849148156668615 7.806648889655913 4.125243415416447
1476 8.655324177141566 -4.2563003104709844 -0.0920401038013118
1787 -1.2222332104093292 -1.0406566883601507 3.494687382670155
1671 -7.17532382756222 -1.4866875798577803 0.6498718412562575
1887 -0.6654649166303244 1.4153360216871784 -5.092324877393725
1390 0.6962206360103055 -3.486776885668966 3.5619533602789915
696 -0.19408895218558192 -1.2583580716436538 -2.5478136756131593
599 0.8109925784968858 0.2616323663980842 4.728964281005309
2995 -3.7973513424176213 -0.08036416801385021 -5.683285288298779
1045 -5.633049742816763 -3.225506223350771 -2.411482196130491
2069 9.555905691624764 -0.3154751796321138 1.0389700694590187
1933 8.894279838684708 3.0266253487814163 3.879563750366699
1362 -0.7333396439098421 -3.3749826992480747 -6.17715468441794
2131 2.3980525427805497 -6.158968128300973 -8.521988042875183
1931 4.520984175634675 2.9600681482689817 -8.792302293865374
1783 9.43934801991643 5.126958811745726 2.438412712243895
2219 -3.7871215873789477 -9.462964395704452 -5.216755934190365
1188 3.934164708437977 -0.5747916003400853 8.00255934212818
955 -5.74410788230327 -2.6181967378637996 -2.288817323398947
2272 -5.935232698785727 -2.6326091911698835 6.018337628865997
1971 7.8512661806127895 3.9481057006893843 -0.572790709111565
1824 -1.1783220099670293 10.25758849488828 -5.83307424358349
1293 -2.7240188680420023 -1.6446121087441603 1.4728513398863923
2405 -1.3845501782054401 -2.170776778448558 -0.7423175307324532
1296 -0.23330478112335296 -8.015195878050896 -8.714297072858
1920 4.553034041996289 1.5794743911085147 8.27369030001962
706 2.6972636163659156 9.557543284655475 -0.25006003669854093
1641 -2.8393801581133706 -4.601262531302373 -2.906099685484838
1840 6.974575265684308 8.549101367731021 5.787299689177466
370 3.0812776866954343 -1.034399283709399 -2.834187767077545
1757 0.24008637610782405 5.74853893575627 3.372341791663464
1143 4.586243291421397 -4.093509622596851 -6.728442215175107
1871 1.6215498693290487 2.585783664714404 1.5089413616654879
1963 1.1855417291673935 -4.3722418792714395 0.3261483441774368
3181 1.8366839381252253 2.0952499485172154 -4.2199229932884945
989 -1.8142613205147948 2.4053478351276536 -2.9985714007060476
771 5.527705575365852 2.303027434678755 -7.77830527950816
2558 -4.509243380342661 3.0430575313530857 0.5662592252448214
1855 -5.469581557859753 -1.428502095091221 2.886638810590848
723 -1.0480971506757595 2.315647089544989 0.38750927643451105
3237 1.569968245642327 -1.8786951209926859 2.630322758345659
1291 3.60277423224502 5.025309930437607 2.001197291725386
2770 -2.8483766533599444 -3.6228770304447555 -5.130179826779062
1651 0.7670196241321452 2.418231010007902 5.047669170142489
1262 2.9205862811226058 -1.5517860646141195 3.195836403243766
1672 2.8969672154927872 5.290746924925799 -3.421920819838988
2003 -2.2921719407249417 -3.2408424566926204 2.267367028230889
555 -1.4453918513489625 5.500118562000538 -3.5172769482239223
1522 2.2937434215615604 7.602286304229879 -1.1793788398657976
2067 1.0815796365222576 -3.4861186263676256 -3.644722052263296
648 1.4840794515113633 8.301880591276118 -5.143705251750636
1899 -0.12523709636873923 -1.3035630166947032 0.8747958135316759
1663 13.274720752876132 -2.4764470633667734 -0.32862580208690945
2505 6.524751840253317 -2.558221403365283 2.0026985751069364
1962 11.393930807520556 4.009760882472444 -2.5753001429483664
994 4.575546262330846 -6.917625484848569 1.2799155150957253
715 1.3288607436198585 3.952078425888087 5.035175241817401
1815 -1.6356205805952482 0.23188147557034727 -5.993057203243102
1166 -0.485716224960157 2.6392161733030624 5.604716137999947
1875 -1.313936484675802 -3.980263118510037 -3.982139529949713
1180 4.3807228743190265 -2.923544252951238 1.960477642928192
1080 -1.6736007071540693 -1.2373152483692245 -2.1150665139007154
2141 -0.1214991519874048 2.5872627867696996 -9.410579059265135
2342 6.181383258884321 -4.352347657779867 -2.409516154457923
1716 2.9855895933061856 7.066450172621814 -4.045221392347164
1409 -5.9223713146245025 -5.445204233764639 -0.34736213970333196
560 -0.9517433046892976 0.434856277052746 -0.74535293773053
2330 -5.638627390051454 5.376046088712378 5.98418803493105
2063 -1.4674527557523998 -8.66398300728447 4.330544915543825
728 6.158197101924975 10.711015949949338 -2.960160606161277
2645 3.8004826547199784 -3.0967681788672285 1.558415033002193
1196 -0.9855277961546178 -4.151693101600224 10.221057716771012
2228 -7.0149661946294835 -4.359387967795237 2.719506121293663
536 -2.0314710808688696 -11.365945279194012 1.174135461255026
2396 -3.2042083859042343 -2.7696687720360127 2.740743171601982
3310 9.12985100876709 -3.7899397628309193 -3.750073621306182
2945 0.3762644332450091 0.3321720489213117 5.01931062141798
1998 7.496160087259204 4.574132167978411 -1.3784874011955448
1789 -10.709413641963128 -2.7630864087514926 -3.9840238324520887
1746 1.095435917027134 -2.3405093662835355 0.4428872230911607
2553 -1.5209178639399787 1.5632581006832569 -10.620565790498953
772 -1.171124866862942 5.465543038573358 -3.818889468325132
1327 4.573134094767424 -1.2343351663069209 2.3714719487520695
822 1.6012906721354008 -2.217309226943518 -3.7200602278620716
1377 -2.2019296682444356 8.89038438954356 0.26013022548687376
3105 4.341878740276959 0.3158437657891262 0.9601969640271565
2975 0.012378947012236699 -6.393482843541457 3.1401996306712556
2442 2.1648963395979326 0.3704909262181623 3.2986096851007605
2266 -1.8684408802480676 1.1561771652501076 8.528147396635866
235 -1.6948661788511663 4.236001216511497 3.0176956878662837
2481 -1.7165794916206707 -5.56942115023265 4.443932727292393
2757 -2.8958226282393813 -5.1757122831804265 1.2277415239777356
2480 -8.39375712336625 7.21952809501186 5.876494042545905
2220 -4.321333080344691 -2.752833387212956 5.789096167319511
1328 -3.3334510949432437 0.0863500816016734 -2.963272535567069
325 -7.75609866119967 5.0327057714734265 -3.9462472829484683
1493 -5.596701718357671 1.4628491623369406 1.3760516856532625
1134 -3.2424610401079215 -6.554420907398657 -1.1151100259662152
1459 -6.8179127669408 -7.377373193883808 -11.159049877574027
1272 2.2186154973942487 0.026366695153098252 4.492301091660042
2617 0.9239779360102045 6.452574957751954 -3.311354840340745
1436 -2.074681318295861 -2.2488037671430368 10.644222384538002
2257 8.319012530593145 1.705020544150274 0.407678321436114
1851 -6.294349926482846 3.626374998996431 7.307250847791115
1350 -0.20724258142717375 8.457361264931219 -5.164319628916971
1756 6.606107736897183 -0.825490510827054 4.640992601015818
1241 -14.095379164897176 -5.089082299751341 -3.2369257835732075
2311 4.069674369072987 7.545387539689883 -9.707453325479175
2005 3.044804426865061 -1.6566807065614764 2.2921058225378386
776 -7.423288607240182 -0.8110122595814484 7.783724075329978
2680 -2.593279789923364 9.003194550724505 9.68152316053992
1548 -7.5314433415049775 -0.7685764615622445 -1.9023914367106385
1412 0.13443427004343084 -5.301117812601342 -5.8765814079585095
541 -2.533029569649735 0.5612091600356757 2.48560109731672
2059 1.4004662031932829 -3.9004923304621903 -4.772539359303895
2337 2.7579852523750117 7.715811867247542 10.367482805303776
1185 7.517488009993108 3.654270678212825 -1.488435484669678
2011 3.3827661345886253 7.79661544777745 0.20026004297978367
1584 0.49122287903279854 1.4915814919333048 1.9488648754864717
1660 7.073554915347531 12.995278640572826 -8.076562680112252
1220 -3.9506654875026923 0.3914725858397345 0.1926444570009217
1616 -8.479306396737249 -2.8046338151698413 3.1533195342725966
2838 -5.53712833748207 -0.1909104135518256 -1.0564029235507273
2551 -3.4543525906069483 3.648678728688687 4.592121619859651
1934 -0.8172778403708104 -0.9752996300033454 10.090472547159855
2425 4.184055314992851 0.4529568712694386 -5.300452737063436
2341 -10.58969004239018 0.2806214189710486 2.4961945124287497
539 -0.8733725462642631 4.794385794131946 -0.6206404426189842
1498 2.8400777694788455 -6.3683352877644595 -1.3910914408097808
1662 -4.703601840202355 6.653536635093783 3.030831320740256
1751 9.634774740197104 -3.491487095965111 -1.0220730347838602
1878 -5.69051191534358 1.176949611470581 1.8194566346701686
2926 3.50049307421251 3.7633458223660963 0.6829644606173433
1743 4.476144954860007 4.182035936336531 3.4474020851881475
2562 3.7510960635920987 -5.90783862541963 -5.153159830949802
2065 -3.7724774175125626 1.37280909095479 -1.0884647749677197
1055 -2.3008006096284737 -2.930817362817999 7.50808502777434
2449 -1.4466864710377472 3.9040063820426782 -5.215728398891383
2700 2.3400343859544215 -5.787125950639262 -0.17226508693192277
2697 -0.02617870100325976 2.541353390308823 7.151848619379114
1818 0.5457268844481066 -3.050236687995272 -1.993207205544551
2454 3.497219372369789 0.5899430994379501 7.85651926261724
1717 -1.7376910919687125 1.4497806368770054 -5.429627374990781
2048 2.131138689891831 0.19293035075364343 8.624376233518072
2181 -2.071510769699633 4.197558779641004 0.8941976653437359
1559 8.203549252204796 -0.5659593304211084 -5.630404909376975
846 -3.075309221537148 0.7039133055749752 1.6911049300153478
1129 1.0717484478150454 2.3002912461477214 5.244513747941198
1141 -4.104031006303778 4.6437209077525194 6.126358573351009
2853 6.789554367245884 3.6593884384698305 -6.521441161872093
2418 4.1842319757366315 7.526404449534716 10.974012336496244
545 -4.021822066234011 0.5443019685769364 0.050438990553509214
1653 2.4883948039250665 -5.243628197178451 5.257826435396102
1761 2.3027217960919115 3.882686767239999 1.5671944471452397
1127 3.248056013329518 -0.9316383152673766 0.018090557940145177
1939 -0.7492214100399024 3.015990308054847 6.30114068841398
1941 -5.962272798319763 2.8889638499694175 0.3711907044869861
2925 2.820202280690499 -9.202107251152807 8.476261396037524
2403 -5.81261065363323 2.695630008528696 -4.699956878747782
1286 1.6737769611352533 2.5130339837735574 -4.242970893368341
592 -4.858313829208925 0.643458910191171 0.4913787077559121
2602 1.213947733466169 3.9026945285122654 -6.409570716302247
1886 -4.0636777283177565 1.393120664714003 -9.05596627017337
1545 3.3509947023092153 -1.3306980152023562 -2.8618561146747017
1627 4.725240038760993 -5.716749717118061 1.055358517531968
1083 1.0678585998289907 8.805633053978259 6.447020327364549
1277 2.5399974854072034 -6.269103499637216 1.805675751485195
1877 -0.2582120685772419 -5.911627782704819 -1.4967675369718854
1811 -4.549954770620576 6.110686217983418 -0.33264751708847307
2661 4.606092880779987 -5.4950927883306 -16.673244484953518
801 -0.05229246837186982 -1.2196051935298078 -7.285438380441031
2433 -1.13239834051865 2.1261004757096185 2.341518191769627
2423 3.1645946825312143 -9.021316257055654 -3.1654413685407654
1980 3.1800338742878598 0.6112714329061006 0.2321288305904922
1561 -5.541701605922376 4.516128920773531 -1.3395208608147566
1865 -0.42722398238090914 0.28369534583790357 -4.299039879709377
2861 -3.312753287752623 -0.2440687820799455 -2.2738497776832145
1033 5.561064132064896 -2.094336662872548 -0.20591635099332556
2154 4.486739205079394 -2.868705661017432 5.122543570144221
1631 -2.105545172595619 2.4107249355642653 4.699374772615168
2298 -10.928591007558406 1.044088828066859 0.18292089337249928
1426 3.810676793566649 3.110990966028283 1.9411009377438084
2923 0.2517352288603496 2.952396538836913 0.38434041801736907
808 9.827125049405566 0.23745413698162499 4.244931697698585
1292 -3.6632728295722354 -9.342688723822288 -5.085337673595208
1925 -0.5580960849945888 -2.093226648185538 0.8992792521246081
691 -4.454640630641962 1.1301856581687657 -1.4645887925427485
2194 -5.6883597398603944 4.853822710227144 5.278303173550152
2329 -2.571784095655875 -9.453957730227039 10.170891286320627
1859 -5.31219947664415 -9.126813213625525 -4.406059849797867
2074 4.003683858300367 -3.656042649297745 -0.5790284692980454
796 -0.9671534006697882 4.276590882985196 -2.784771972062297
2440 -4.406517166230279 1.688122953657243 -0.9778639406742845
2112 -0.3646635115757354 5.008231878019861 0.04062348228457087
1471 10.348587661950509 2.705743653677741 2.951741173423693
1804 -6.275426334236193 3.11350943595353 4.587894022235419
1107 1.5908846043699614 0.34155744358692985 -0.7153831819005398
2987 4.976379640934447 0.8216762173086622 -0.024976439915174883
2382 1.4384280341320934 10.005152563177113 -1.1009733793078809
2610 0.9860926835953585 3.637177632658177 -5.363935734185262
1306 2.882238285040935 -1.1060825406469277 3.8955167004991944
2998 1.2588485643957628 1.0726169495091495 1.6818360583917813
1990 3.431941729895236 5.245575222203251 0.3410201297976903
1251 -1.4200029518522854 -1.75408224454066 2.626740710589252
1475 -0.16043609063340175 8.65637428466571 5.71988197990518
2186 -1.1563405276774084 -2.809645620773026 -2.4496657570572298
1715 0.13828321490928042 -6.098860769181401 -2.5790081278953383
1892 -1.43862722434445 2.136481666896956 0.8119200173584864
1821 6.844077894571364 7.037391258723789 1.4812424101726105
1863 -0.34273495894207523 10.375995670733682 -1.2341232440698955
65 -2.673699131866091 9.228203981536115 2.2321220026995325
1945 -1.494357651464161 4.811411261522873 9.104288947401617
1004 -0.5786404059317356 5.216062285182862 -4.759490598706476
1421 -1.3560325392218429 1.8134395260854286 -4.825409171914383
1514 -0.051993513629304274 1.6020824117793104 4.2389993484841435
3250 2.918897520651642 -2.379990354251885 3.3020549705273172
1689 -3.714320249241886 -3.985367966695844 0.7857396905810434
2264 -7.353677520179821 -1.5434749242990198 4.783007733596832
1586 -1.5113281157740295 -0.2402150040067851 -8.205194891451857
1418 4.3560469243694415 3.830659823646499 -3.259542494734627
3067 -1.9638557054778365 -0.4824433429552569 4.015836385536165
1964 -4.1897116259829765 3.6199751478856697 -2.042112219193555
1997 5.368983964818033 0.4417430823825393 -3.4985034893231286
2060 -2.48968084300883 -7.948089724601644 0.43959881500827075
1648 2.430774661372184 9.285973942610111 -9.4435702097409
2029 2.4893989681275683 1.0803779447706385 -10.163477990791808
2201 1.6673249534850585 -5.799590736141706 -5.347202611704461
1396 11.921115024284303 5.0175498944407275 -0.9745139686451795
2013 -5.187476801245935 -6.212349818872047 -7.020120980770842
1640 -6.809585488388603 -5.009308511142942 -1.3653828585838523
1638 4.764066469087426 -6.981727166456781 0.9362764461854945
2472 0.7663973563621833 4.913675527526997 -10.783728006389348
2077 2.601230516724715 3.130996792387408 -7.560418367676042
2307 9.042772848510973 1.149292613134129 -7.610143675024253
743 -3.4715697848519143 -2.8723430766167093 -2.4614490282452364
1070 0.5624354292620778 -0.6911089120953509 -8.520149362837255
396 0.5689979741519806 -0.09341092480087983 -1.990727200034534
2538 3.1330523568809796 -4.317256493340118 -6.979280788722746
2203 5.518162194025246 1.018443616819267 -2.1224393312755745
1665 -2.9273450783729187 7.98872533104025 1.2850534823842006
2084 0.586955457137743 0.8796173501639383 0.7083895410225894
3246 -0.8834973056677417 -1.2081449590663302 0.623773769794319
1547 -6.310686816875703 -3.0731524945817275 -3.9145765680033837
1073 -3.649572980006722 0.14194044036970013 1.1202197493765838
1244 1.7946353165705673 -2.932362481417539 3.67039215245322
2124 -8.618130603133352 0.7871000994057458 2.9072345345151502
2684 0.703459918345041 -2.7317612372121736 6.836755510987729
2058 3.1884010411622405 -5.750433063501356 7.518793438636245
640 1.0968446475934424 4.257971310846534 1.1349471158013378
2306 2.403096789603716 -5.819972424760566 1.4775474394322323
1728 0.529366115200792 -3.3752724901443494 0.46436675321455567
1960 9.938377568882563 4.146581335101233 -1.4802863486493887
2854 -0.965883585247944 -0.051825259660298356 -1.672369546610819
2485 -8.679128538800546 5.689657373923484 -5.332258897443509
1027 2.2576341823411905 6.526105226943922 -10.728506143287555
2692 2.8851763767369056 1.810659316736729 -3.8614041543695583
1585 5.325611610958777 0.9952570016382519 0.42432073775740403
2443 -0.594745141616005 1.3517433235015406 -7.229044520006332
1422 -4.670849849522516 0.23006064996981063 1.2912365209596386
1812 -3.183571598976842 3.334279335843108 -6.779851475134609
1434 5.46311259702136 -2.3011171027408346 2.1404949420391497
303 1.0593604480039014 -3.4034844678227794 2.8363155959396433
1889 -2.885670463177705 3.438141240946839 3.523464950489923
2279 12.815734998590951 2.1127709909076366 -0.3489400309693673
2436 -0.1424800071111157 0.7363657104490354 -4.63939193839126
2209 -1.4852787372854692 1.9461941027964687 2.7798144272717424
1678 2.7987370214425513 3.187035417460513 3.2507442961322384
2543 0.3374725544587764 4.922605421678329 0.6992186664185128
1427 -1.0905100295681787 -4.980073084694885 4.735739055545173
2100 1.4379423749727813 -1.3161578826767535 -4.236421145800672
2660 2.5740609491455633 1.5424309197641288 3.0080181881334944
1284 -0.40471113993756447 -5.7977749677910575 -0.5787893239586707
1556 -2.497379339625821 0.5595395349369967 -2.228620432931378
2439 -3.4857693897974036 -0.7385717672769767 -1.5203970448931796
2375 11.493860488736138 2.2443211091539736 -1.2378567633115056
2244 -4.206818957427158 -4.190347497269043 -1.7999249997249755
1470 -0.7028154898058104 3.4432133108620726 -11.096251730492362
1642 -1.1889609304153625 -1.8131458635795992 -2.7575477905041414
1506 -4.3693706614243375 -0.6192879499586649 -2.9759978249020156
1785 -0.1139160703701292 4.037250605657821 -0.461560483270962
1448 -2.0143522389664 -4.780187315525978 -3.349203525995168
1324 -2.185890585974166 5.719024463293938 1.9549242772617175
1451 -3.057620135716555 8.867258129792537 -4.7886052812002
1987 -3.549632264694582 2.2614124546737333 6.547087193125984
669 -8.050542431152888 3.7177441489141656 4.635058572517772
1834 -2.289821760775964 -0.5371614722815259 7.339755050022594
1243 9.619807622921751 -6.470711321379319 -4.242452545152636
2121 -4.385334211625832 6.451440067159385 -3.56213870439916
2046 -2.45370635104781 1.5195427406767195 1.1133147302730784
2598 1.8116364336427428 5.014974853848115 -4.8769661226655785
1379 -6.37271106587151 -4.997371273048562 7.3986744008857395
1830 -2.9998267456277485 -3.5499963484977646 -1.1980122050810065
1094 2.3669983158098544 -2.4036249084499235 0.7111811526201071
2268 -6.180498653236744 -4.063462431784324 2.179436780788544
1583 -2.7174343821809486 2.6710622427855983 -3.6624206581023606
2889 -3.076089675687707 -11.825949263766306 3.677686832164651
2363 -2.1461954985495026 5.629238406144262 2.1791740790808087
2185 1.8365910678541801 2.0218106803565714 7.465054005854762
2349 -0.6244376091670042 -1.412007612105322 -2.3145926825952086
1848 -0.5822871857478028 -2.0089607639286164 -1.6620175621931852
1870 -3.999849018969118 14.693535399677433 0.31264361597790924
1712 5.323556625712268 -1.0195786409902905 -0.4158971474084133
1570 4.933754665998479 5.484042004470459 0.24591061976975312
2177 0.06676161901669155 -1.8162368759167344 7.557977478070242
2208 4.770855228856134 3.1744485791724757 -3.0151716036184166
2325 7.8861899844151155 -0.40500046227936704 6.86844248854759
1833 2.4062216786196435 9.224288054698903 -4.537073293458901
2250 -0.5469955535398608 3.290547732767126 -3.5677860113466227
1320 -0.5130826231188417 -3.933060161125598 1.5873962823581849
1544 -2.7422875912357516 -3.00087741844191 2.3279762678795772
1630 5.8020873264994215 1.6586328960965073 -1.5289081109585703
1463 1.0718420948012135 1.0375134238064796 -5.124098450851299
3069 9.082550742827218 -7.365381325773574 2.2849168096950483
3037 -3.9939290022376914 3.8023196655821425 1.1279218670114046
1958 1.0721259778471 -5.316360042727531 3.151484104962733
1843 -7.489808608383621 7.581093439103906 -2.8788770728772395
2720 -3.316058371457004 0.8329396658029616 9.589950476821462
1849 4.55430149755445 -1.2664119226560364 -10.797221825876635
1056 -3.57551170909135 -1.0357663081957413 -1.8096993148701992
2174 -0.8775388548719153 -2.9022333812165515 -0.020791176742597055
2748 3.003068637516288 -0.24228356412564472 3.9383893256942604
2450 5.0796264300441125 1.884641466935271 -0.742248962969586
1679 -3.759202050073347 -8.936985148045919 2.1346426135102723
2184 0.31226079406629487 -1.7822027243409786 -4.562395590453913
2002 -1.268020343323408 -4.789964641742591 -4.264375085676365
1719 3.4066048317153372 2.9574368777498523 -3.856961956235126
2967 1.3759474585413858 -0.8977262318661341 -2.7606581412875886
2359 -9.558341005794025 -7.747467282580748 -2.9367699661669566
2714 1.9851647507162853 1.2135873051913797 -3.405671367606821
2006 4.860198827800429 -2.547096839571103 -2.7969730627912366
1177 -0.8876371666721941 0.6495952675391399 3.762307218016013
1495 -2.7134450629310374 2.697745043376099 7.895772592061556
1725 1.4610056309137756 5.055961858096451 1.3932876497396018
1832 -4.238258136123533 3.6041671541646907 3.4003715122647127
2548 7.953410428546722 4.75041769160365 5.678295852206066
1635 7.495929925430581 -6.06193686032287 -6.94924689352502
1491 -0.5890582795063872 -1.8563465542869764 0.06131581661861915
865 9.064921131389287 -2.7258159393343364 3.092006678802548
1509 -0.22037359920244237 3.457857450844196 5.92913486357493
1667 -6.093809266595758 1.7776534045753118 -1.8622751674026148
1724 2.344166831402177 -1.4426988921953827 1.972612495328081
2618 -1.688932868016501 -2.4691885375443983 0.4681887314128713
3326 -1.771868073347313 -0.1354439846479306 -0.6404842622617424
3045 1.3581373883916408 3.081459918342204 1.8057892426967022
2445 -2.8674144193506748 0.3872251555150884 1.7354490580099986
812 5.080360898071164 -0.7711277614538083 -0.6382453550983216
1853 -4.3003811045925735 -2.5874620683924374 6.938403996290359
1766 3.696836081051034 4.196010638009467 -6.814195345166932
2061 -1.5310802689617264 2.5479448662830646 -9.779234343346305
2062 6.955681829553406 -2.966236311468296 -2.1741559414845857
1744 -1.3503811062141515 1.749171411406797 -0.03209379992077917
2772 8.333612395311075 -7.0120540439824754 -3.884474219823678
1742 2.708230594188688 5.607909108040639 -0.09811698832177827
2284 -1.5529139203479365 -1.8176573699782765 -0.4091445707280889
2231 -2.5361406427844475 -2.846782323119305 -1.980648824641019
2190 1.0814085240980977 2.585392542181134 -0.5489139059198025
1423 0.28951510605268044 -2.8050793426955 -1.5163793020576009
2198 -4.710887312221966 -3.0760106047526916 -0.08106355847116505
2970 1.8730921200481656 5.166334540343234 -1.9512432067545724
885 -8.173224476047602 -5.934410091140068 0.49499431292822393
1655 1.215904823360604 -3.513619785758946 -7.033927402195679
847 0.8941478709142633 -16.887124443131153 -5.45652185031719
2516 -0.8985108298115558 -5.909685844930933 2.234339666129056
1238 7.934355198834868 2.1077744945957697 -4.2540195988806495
1431 2.8180519380195044 0.8391313044397937 0.7638732487572963
2096 -0.826902651603112 -3.9078035208190514 -11.138012802648667
2922 8.23541626118426 -4.304359372925346 1.9370396242596613
2441 -1.0935406139988144 1.7101212657889497 0.9847896430073366
1632 -6.314267175154215 -7.5915154347140374 -0.4071775564708667
2799 -0.8624243930162514 -5.9087039318726955 -0.09975946162556713
1942 6.136483835090914 1.7822671647507455 -4.19383571216007
1612 -7.579098139262358 -1.6480136241519054 0.8574926482310544
1786 1.9799047307818163 0.5714009831482799 3.380000581735759
2691 -4.340562439538442 -1.5174372306062145 -2.2099061258532333
2051 -7.697595736548495 7.204093501350162 -1.3831470756659712
2777 -0.7222345620148769 5.327190431938822 0.47560835032382376
1023 -3.472381343829386 5.058291296167349 -0.33874693730302646
2256 -0.1409011324021186 4.039839438859642 14.581010504204633
2052 4.79594498416697 -4.102640309088398 1.6498304306767482
2115 7.634084775682305 -0.26065909029555584 0.9856720364633378
1610 1.339377599733284 -3.8704728416196463 -1.604382312536151
2483 -6.1416778844364135 3.89225124281871 -4.350931329881806
1321 0.06877292147842312 6.855492827340452 -4.573384354060772
400 -4.2730603944898835 5.6987487083839925 -3.373724951114402
943 0.6547052943044603 -3.972084627739536 0.17018341299348833
2401 3.674272851204271 1.9906428171465547 -11.275252661001735
2741 -2.4150372988332545 5.112172711871624 -2.9135680147672525
2765 2.427658277381985 -3.474116467191955 -1.6686867474770215
319 1.03500068453358 -9.742980754633509 -1.1542875074487289
699 -1.7478377440327957 -7.967316967761776 0.593400677428526
2362 -0.026103405764212703 2.4616682919657036 -8.38776662340665
1443 -9.394010765782522 -0.8447984835718522 2.226853671287852
1519 -0.42872910831689004 -2.404282762921688 -8.111134849602443
1169 -1.112594597107239 -6.7138077925124575 0.7318858536799843
2136 -8.21169644340783 0.6737327068290988 6.2163626335749695
2200 -0.12837977838714743 -3.831334361865252 2.0641467735886785
1161 1.0122928952061894 -1.0239218499459115 -4.679974258118825
910 -3.524985635666757 -2.615668843713725 5.406648701019051
2592 0.9394487508508041 -0.9160442863389816 -2.998028645330578
1555 -6.406409666880729 6.3393451759345965 -2.6093270443709122
2650 0.8542658024192168 -0.5998403199195816 -3.491627327552513
2045 5.825039615168337 1.2264925813870975 2.754836565835333
2822 7.0147985251885885 0.8962882557985641 7.5598009028521505
1668 -2.283209714136964 2.5163028241565346 -1.7999512430878546
1480 9.887444684439009 -3.812581366375865 6.913699777639493
2304 3.527229126451245 -1.8819443713575112 2.533265752686637
3162 -3.7132601543635357 1.4233759366345702 -3.2700096718297162
1386 -3.722196881590582 8.310873706707914 6.582061708046495
2787 -5.8140169372276596 6.8130621601718175 2.949658247232666
2629 -4.3194026584055445 0.48884770344586503 -1.5148628615978914
1775 -4.763531526160253 -4.036482201155066 -5.252384641555296
2569 4.9360421273012465 6.048732868283777 0.8318844655955138
2467 3.137412808978044 0.8207410327857362 -4.912651375174021
2273 9.912415009869347 -0.7391228667229809 -1.984343085428248
1549 -7.604741719199378 3.775294668117749 1.4591253688345935
3072 -5.9714025354039455 -8.475170307462994 7.941484655053338
2903 -0.7837184506315032 -5.3855091267418915 -1.567429705634094
2520 3.1976324799126905 -7.631642956508501 1.7134029241460278
1748 -1.771221426799545 5.988501214349334 -6.9969672865287205
2506 -2.666765126422733 3.699235338246671 5.923682614899552
2702 -3.6385397339665735 -7.941903476491928 0.7762447064061483
1800 -6.861256502400898 0.3883749270037697 -3.1684336543005664
1601 0.9117115355561893 -6.011660488826512 3.398968940408844
2578 -0.5746371217653491 -8.258781218555425 -0.647716711587208
1411 -0.9677405048034446 -3.41787189105672 -0.1770138105587613
2380 8.36557866478399 -2.013575967013361 -0.5813547749880331
1798 -2.4417549031994317 3.988906277500804 -2.600017310378589
2800 -3.214890922936564 6.130965296901395 0.11885956242910657
2735 5.4689078173700345 1.5917771971007715 -5.215251544182233
2392 -0.510430947455687 -5.151517296080019 2.797376128289954
1897 6.310316699755751 5.767791162232674 0.5855315090517177
3294 -2.2885535850833794 -3.565678076773624 0.47419803772046015
2616 3.338981816685778 5.901770056729252 1.0906709479473535
2192 -12.65888489216992 5.7496712794964475 -7.215887145664486
3085 5.213098746325806 8.083334248118254 1.5764721793404584
2446 3.1670884249738167 4.899790808261089 -5.037466251209975
1869 6.706711485438465 5.914109631790546 3.2330211462441554
1937 -12.011668930748582 -0.2764188115016003 0.28274008577798937
2070 -5.977339381942667 -1.404134728302017 5.127438002618162
2611 -1.785132402704299 -2.778245777416357 -3.2991728636994404
2798 5.043820039389769 -0.6786870996620604 -3.0150953348237457
2462 -1.4505547533693437 5.2157475243669875 0.7051427746639942
2863 -5.315223392806201 -1.592641859351613 -6.808120060147979
2579 4.289596103493839 0.504854073436863 3.433400417854896
2589 4.527212867090922 -1.9397478637527332 0.5398853567935812
2643 -0.19377953597159484 1.103838306755525 3.954120133064172
2761 -0.26588504204769686 -2.799879538645741 -1.5591023931903933
2287 -0.9785833740753409 -0.6317646369348932 2.2444991742917506
2575 0.003488357673395298 -8.136753154107168 -1.2023502268195208
1873 -6.7397565003765205 2.7842109384122646 -2.0162121919695446
1263 3.110731107853611 -4.401810611303701 -0.7295359524463397
2577 4.924263321463583 5.117038715446718 -5.153956171000279
2424 0.024827102201358926 -1.4374522173041917 4.828271960268136
1565 -0.3696676881905112 7.590347891108997 0.958370789792504
2966 3.8952703051615063 -2.6607123690022765 1.8114814512728667
2522 8.321011891797143 5.622202346347609 4.589688589045765
2159 0.33151391852151746 1.5248378686040187 5.069081445789564
2871 -3.219331847273516 3.9274477284973712 -5.290411417866385
2066 -2.8036200856239755 -9.727855949525072 9.142882353659251
2488 1.7183265137051569 4.383195150606703 -1.0693115735574914
2807 -0.13846968022341055 -4.047719621479188 0.7964265423876241
2990 0.8348025747264664 9.054700145835353 5.583122039834278
2110 7.828105355226799 3.238614735945556 1.9563117013711908
2361 0.21302628294208664 6.792294506594353 1.9337483976884355
2882 1.4179529006017453 2.5954820573307305 0.4744868951903665
1767 -4.936480838057895 4.48714944525176 2.5225774459545973
2104 -3.3112491505001946 2.549485531827544 5.323823261936982
1591 -5.588726719012074 4.045901180462096 2.5739823976266067
2332 2.6400952389411017 -3.3765694632964998 2.864437111335661
1170 6.533528690279835 1.8627047272661597 0.5619073492207355
1415 5.44915623628995 6.396777513807984 4.285371016118458
2609 -2.0679777270457587 3.5200520507455213 1.81721782877453
2586 3.02972078898116 5.369599944815845 -3.8186811548937896
2623 2.67462813845166 -0.16174468346763238 -0.9088973896131105
2497 -0.2872982132230202 -6.156860832681535 -2.759097182230481
2883 -5.503787829312769 -14.2841206882421 -4.485436448898485
2591 2.135985444813097 -0.8314557984974936 -4.412703686616455
2549 -1.9469735066533755 2.121655065301852 -2.8885391783947103
2812 -0.7045925569644114 -3.9395084614169473 -1.3972411389656425
2079 0.8155827082350771 -4.662734164312314 -1.7996158338960933
2301 -0.8376033438929058 10.10413744879515 10.188232413033209
2880 4.215696328111666 5.533510590487384 -7.190517223545821
1790 3.65439003935271 0.20752813531343967 -8.224327713199536
2640 -0.6233391828909104 1.7809812198173607 0.8236260100318035
2343 -1.218426715626487 -5.18601049017518 -2.3038255801552108
2027 -3.59988689911641 -6.032549146372178 -3.374304378672884
2293 -0.6337747560312967 4.064219913141806 6.747398668258095
1895 -0.3328630929280586 2.288757982973008 2.6061891669795147
2851 -2.2670227246411927 -1.4297685521301937 -6.149284088766568
2693 1.1167432584834291 -3.174276382811191 2.1951107863449093
2409 -0.7347989169395475 -0.8623834625181285 -2.1956868640672176
2265 5.515054433987685 1.7192585663209778 10.883760414813569
3189 0.9878458244572508 -2.982078833486549 -1.0391914344846975
2642 3.0184606345054266 -1.4593654317304803 5.794402301277821
1884 -9.496227770654547 6.231581183935776 6.850609554351656
2196 1.843394097171833 -7.353900407653962 -6.042957155315226
3032 -1.87799822793905 -5.136117776284193 -4.443559250648074
2641 -8.046880216005242 -1.062635402858269 -5.836315395949465
2568 -5.896600962531901 -4.734834290690618 0.9948777476834549
2336 -3.865617193039958 -1.3785397531647061 -2.2533573136284106
3138 5.712808984474582 -5.100274109855089 -2.8195491104474053
3185 -1.2526464282853842 -5.331913688062834 0.07520448955312925
2550 -2.32265979756325 -3.0034739573747826 2.5457354688294234
2094 -6.129242458782865 -3.5379189734459553 -1.2366635634767407
2317 1.0025125914108255 6.81171911307107 -1.8166732735760927
1165 0.22286616781552476 4.748814853364927 1.4014287295061567
1603 0.19142737019229789 9.197927455077721 -1.9081004883351311
1039 -1.408660650912088 -9.627233352889984 4.97209892562144
2866 -1.3249038191498705 -3.8315380286234735 7.55478835866741
2379 0.954513485117468 -6.093891048122183 -3.0349035623296374
2288 -4.601667185244952 4.845195222545192 0.5755089714002445
2605 1.8512808579434927 -2.460973737486847 -1.6026092843002158
2352 -4.89280018601545 3.9002535901894615 5.36082819225467
2278 -4.971000393806844 -5.967379780187175 -0.7604692678842495
2176 -4.49232949852268 -0.9031532443313436 -1.9732648166093885
2540 10.403643556408582 9.278193236829352 -7.277968343842647
2665 5.060947537281606 0.6551724908324579 3.2547792930162305
2837 3.9005808279025658 -1.1803014867859478 6.832257897686649
2093 -3.410881673902624 2.060950259460921 -1.9921545167417658
2893 2.9593487385698043 0.7608980450395165 -2.9484405390876955
2833 -3.4652058081337804 -8.153495407817356 3.1406103659901627
2606 7.641837475251994 -4.367087090833431 -2.540268576837777
2604 -5.621844881517363 0.39435149092554994 1.2611112815219754
1852 0.6953905701556702 7.409866404765374 -1.364123113511883
2646 -2.803777636430369 -2.3766881410816527 3.870659643686825
1896 -1.808909505494341 -0.7016074225989107 -0.4813347674467364
1657 4.253720112809009 -7.953118138655311 0.9764921614970717
1806 0.6943764961431472 -0.3767631158437462 -6.109894951922838
2222 -1.3972926385812718 -1.5442702414043545 2.612634630653298
2795 -1.2678334164562615 -0.4627975056428047 -0.6761290875451822
2864 0.7498643184441348 -10.698932274308348 6.461840236914579
2010 9.267023706071642 -0.12176037244855828 -1.2407790986555205
2638 -0.7185872481424347 -4.6381624891018935 3.5526738699854583
2706 0.3775172560251359 3.2710417841773207 -5.331982902838409
2891 1.5027205602119909 -2.8651634776225183 -5.752247556156634
2168 -9.428234065293308 -0.26114816632276316 11.470335665642347
2420 0.18965490760380155 -0.16852462050811368 -0.4586783511002222
2413 -2.615661691021424 -5.21142356190024 2.157546654972912
1780 0.2894163386666832 3.6362796669699864 8.543880274845005
2030 -3.3958362943466147 1.634370003817586 -2.1011167174925367
2819 6.697313694965331 1.8198448316746885 3.990585998963469
2025 -1.9990711984134306 -2.7573099041471014 -0.3001002538362864
1507 5.9524402124546665 10.07336267207232 0.6781585018517454
2195 6.224252674716428 3.5890680586397767 2.2534302576614054
2754 2.530497375038137 2.611350064145197 -0.6347739016615044
1136 1.3292857984729312 -0.7568149696477051 -2.940787671366032
2659 -0.3348789712666026 -2.2626889935228247 0.31719909041942695
3027 -5.8853059959156475 1.2311355409465456 7.975039326177856
2933 -2.986168498449581 3.2899600597683363 9.334752180530852
2658 3.9700038235657598 -1.7964437249784575 -1.1404889043557258
891 -8.217326906696295 -0.14159222140570232 6.1731605904501485
1882 0.4892746279069453 -2.0438876222551396 -3.234781729580094
2805 -6.040771202664158 -4.018360246279362 7.228500592364473
2685 -2.1388025533707093 5.306766524404161 -2.9411011420899835
2286 2.494358978642105 -2.143272931245842 -7.04427631038643
2582 -0.3934833181769502 9.576918754179216 3.3001016015698927
2088 -3.2919623747849722 0.7899091538159615 -0.9797137713188534
1078 3.4334975727401584 -1.1046721366083956 -2.327682682363115
1861 11.508108482641811 -5.7781005248779005 -2.102465895513941
2260 0.9574470605497053 -0.5973070036666139 4.346937440596671
1823 -0.8612256490639224 -7.907743551842562 -3.332631757699185
1856 5.027107101072668 0.2922047247009083 0.6839430944873532
2355 -6.832486264545774 3.789005466928071 0.04443007788765428
1825 -2.6427016983383917 2.0866324754894876 -5.245083623132289
2143 13.04480816688546 2.616440257950153 -4.146866912741586
1999 -2.9053423088551007 -0.09057862022629354 5.494354862544127
2092 -2.766014529958265 -5.147965792368424 1.2202261545911353
2501 0.7603909280973759 0.9102592473103329 -6.469109044927439
2090 3.7631994653130447 6.243700443844185 7.772620500764042
2632 -4.263484442881246 3.417723975134016 4.683189635513507
2673 -5.80725672065912 -1.7062818132607598 0.040174168751557895
2781 -2.178224827886552 -4.779517233083116 3.8051278947513167
2165 -0.22185211827814097 -5.3968556303875586 9.621996520208894
2205 1.8868199247316828 3.610234299393707 6.423767103165107
2204 2.6803455498398883 -1.2559581825815138 -1.535470492585331
2649 -1.953764047772382 -0.17075352658643894 -2.126766682161862
2463 -0.6618988013062822 -3.788229148004258 -2.4538782563299724
2383 -7.952217674572959 -4.7409887852674535 -5.845145728930806
2981 -5.097115906753077 1.3522526899390541 7.374886295989457
2495 -5.975099804936827 -4.0472256514419245 1.1646413001051417
2597 1.0174655409657036 -0.1237972321662418 -6.517724052036141
2347 -1.004481123635108 -2.8716435430539065 2.6841969145415656
1845 -4.058874575915119 -6.251451642144328 0.5824762991001585
2422 3.3287896040987985 2.7409821460944093 -4.424036132850627
2415 3.4161996294125156 -2.234058487091165 1.5579982123260387
2259 -0.25480310851141474 0.1492600303681832 4.897158579262069
1606 2.5842938554619708 8.725927539741653 8.294907402138069
1693 1.318908062756842 5.229177207835673 1.985266369950596
3205 2.6787418058831576 6.105989618788351 -8.56544936555264
2572 1.9643896845554394 2.821574064162413 4.035989272755097
3193 2.781321974886565 2.4986626916178434 -2.4548003263837535
2157 1.4091655742308649 5.1919687750783 3.3908540901427564
2164 2.0234592726279197 7.134335692650169 -5.046137443516895
2163 -2.4084391997275625 -4.982672952238876 -1.0517521200411781
2667 -12.853352749759729 -5.0742831589950725 -0.8621413744156468
3142 1.3438736695203335 -1.3057532479764153 1.5321053838361274
2091 1.159045556800322 1.2658891204782259 -1.3867301963935112
1707 6.516820522439633 0.5677727858561971 4.513831307229774
2218 1.0452449798447188 -6.887710732535069 -1.0589257229911169
3149 7.07598815055777 2.5707997100552045 -3.80042900960271
339 1.5381377433832142 -2.8947559688816247 0.025323134813829043
1957 -1.9876285801177882 0.0645227643075606 -4.654949844011137
1935 3.961118768363179 -6.56207562634997 6.041635303936134
2885 -6.031915120488791 2.163160222622416 3.537015266834539
2130 -7.96305741470036 -0.828204674021571 -1.2280977159728048
1813 -4.197813149447693 -5.811372216534179 -0.38015852713204623
1684 6.230273219482342 6.5910014359051 3.2182038816325513
2133 -2.0184310071329863 8.556427295653359 -2.867990028828342
1808 -3.6575016394559148 -10.767793321627567 -3.561132234853408
2991 9.379896844371208 0.23964174036583025 7.946044373361108
2676 4.37852827777825 5.1940338625913895 3.5209112974771655
2928 -5.8427905060413625 -0.6179334383870643 2.295573637122411
2608 -2.9897101473658108 -1.4824194026675568 -2.279667477709588
2470 0.2339721269379593 5.3951242750307555 4.487123126669879
2510 -2.819975390465628 -0.5585451558023043 -8.068245130758514
2327 1.465448761080089 -0.11873969511278445 -2.0576577155289986
1734 3.6804620210883563 -0.10016177450314609 4.9421756323384685
2898 1.146232151308301 7.3056723512598465 -2.5402869219093605
3026 -3.9584045062506537 -4.8736103395309 -1.266031026189767
2767 -0.40503594291463313 3.2897031098823017 -0.9085919316829475
2158 -0.6359848031665233 -1.0549044867602555 2.480585170443148
2818 -2.7362459548668703 3.3671611875970004 5.275364452005183
2235 -5.086648257715918 2.1339275041246593 3.8804683999305984
2400 0.2616047614584334 -0.5275725425061351 3.08100944950842
851 -5.840738985304809 -1.6467850902502588 -3.5138610282660245
2671 0.8527357907023588 -0.21112414763171947 3.2389972439968213
2745 -3.9922614634183753 1.8871636498323603 -2.429930972194303
2109 -1.4150932695262488 2.660917881175916 -6.086233750178927
1976 -5.38796520176856 -8.496698583280546 3.2645474805728916
2156 0.9514996195815931 -3.4372960775431873 6.450741246379912
2753 1.039007330265516 2.3088275491760006 -5.797643834213268
2682 0.45791611432260804 -7.151775087686918 -0.11740018481050299
2603 1.4221131653499832 -4.111874442020578 -6.743595204457026
2428 -2.0774914418179224 -5.41456540741771 3.8866975147573197
2886 2.1716997669605975 1.928822192393895 2.6968479965047605
3036 -5.83678737492074 -5.70603740506846 1.7945384174243322
2527 3.3708098684595087 -0.8953391648305338 8.156861693881687
2974 -2.985855853930934 -6.845718853015478 -5.182178645430963
1929 2.351535452934931 6.247188302983939 -7.490670537344837
2035 -1.7326030947525475 2.5635759625954595 2.8137273416663504
2047 -3.4293693475384663 -6.280757178062045 3.678754021210769
1978 -7.7178719424131295 -3.6266487482110694 9.922924016862108
383 4.459002858961839 5.040264183587025 3.0221873504954804
1900 6.336604322035012 -0.38860813954234885 4.674219658261556
2448 -7.425458788338602 -0.8874604476316171 -10.556994368442094
2944 4.41249552701124 -1.311990598807155 3.0009662372862156
2434 2.808952925691507 5.670721202514367 -1.6218543168275754
2410 -7.498995520284424 5.827505867247099 1.1209281382699512
2717 4.713584864040475 -1.280611657081955 2.6357161354221113
2734 -2.0569684196914606 -2.4685177881754754 -3.35351721514713
2752 6.803620231568925 -3.1158530267345386 1.5847685364053072
2309 -3.1710933579594394 -2.956481093133642 -1.6229136028648827
2432 1.3963324436869475 -0.06106649562906967 -6.8918445788479605
2919 1.988866728070976 1.8736578104224089 2.038028813451824
1921 2.7322812251385535 -1.6848322647091376 -3.9727742535868935
2191 5.805870758358641 5.499147646095253 1.352121665787896
2727 0.38671173390539065 -2.9667398934062437 4.309172804902221
2447 1.4755615786993066 4.475628360577993 1.4505088963794144
1375 -3.086792038081736 0.512690760418602 -2.3866166159584967
2416 4.403964452547794 4.327266451545056 -0.659443429462784
1097 1.8077612567743435 -0.18541481506545324 1.1563372911985579
1904 2.0501411597487853 -1.3476968993758025 11.92642987590928
2155 -5.76925416980698 3.4737256839807737 -1.5270328543804481
2631 6.335442221720831 1.6111792995361065 -5.768477224466279
3039 0.45128828439391716 -4.780788951757038 -1.4278352939251286
2473 -2.06789381561889 7.180790398486577 4.194821829403212
3182 0.8242040077253963 7.6608627611918365 4.833662778042128
829 -1.5355416929528805 3.5126250243919133 0.8494726041635355
2226 6.416204085632775 -5.484937222665176 0.7634210876868293
2862 -5.608948475416125 -0.3694311571502074 4.79887007978608
2452 2.4670358437225506 -1.4983327211109805 -1.9172957983514072
2199 2.4334393921322537 3.5480257626692815 3.4868014060862924
2437 -7.914159610833028 -3.3593764936916326 1.3238954223275834
2221 3.0391362101419954 1.5678192585230706 -3.799255138079739
2125 0.8917833846253904 -0.8562739745102615 5.8749160724174665
1866 2.7934804850980277 3.3536351748892126 2.1899397917367502
2248 -1.8331616510800528 1.9293957382985003 3.193781030508718
2072 5.906488946878264 -3.0249906931034274 -1.0608044781747352
3221 1.1825738513371333 -3.316462096005215 -4.0447872660392985
2509 -3.835252811682111 -1.2759483147345807 -2.911347571674482
2490 1.1980246607752723 0.8220790268239624 -0.6912348275323168
2619 -2.559011517171029 1.44297069161718 4.098691035988638
1966 -0.17509683909690296 -5.074444060347399 2.2679767416167675
1228 0.23199021449646923 -11.66913891201942 -0.9924009792911233
1644 -1.8192362367015897 0.43677828417241255 -9.99528640248848
1995 -6.613843481172799 -1.457211804050326 2.5397409755792686
2507 -0.20827820157782614 -7.161330169679008 -6.33835860153032
2238 -5.949800429457828 -2.6174666994462017 3.354891019022282
2771 -3.796226933965024 0.08484424506528378 -6.300134039957455
2524 -3.377970970687443 -1.1022384629815545 -2.4746577423092937
2460 -3.5754680407172534 -1.5905579983422193 2.40092047636497
2431 -2.650793462056255 7.225016207516555 4.4514869193928
2487 6.019501853310655 0.11994132426523603 0.7752962279680194
1425 -2.001757713696891 0.34109828451743285 3.01899566516116
3249 -3.654943531101019 -5.951673146609698 -2.640039771120479
2142 3.2607884961050186 -4.43611668963906 -0.2975778389709698
2492 4.311041185153257 0.293301119587835 -5.9576857607852425
2292 0.7946628441072529 -4.552290687264563 1.290833275452595
1938 -5.689381152189016 7.055116115583423 -6.188090621445804
2017 6.528421144512584 10.466779282516146 0.25988676146932094
1765 -7.551978458523722 1.1268117924309113 -2.8870426606206743
2277 -1.2022312525893852 -8.154397865532909 -2.4252511746880367
1975 0.6689826917552777 -2.9059067657748265 0.7889105968307722
2466 -1.1122313199561047 -3.5185824591834227 -0.9196094080892387
2539 -2.438365843736938 -1.8247228163767664 -1.6732666013952184
2971 5.093008365334266 -0.5560739090735485 3.130490400360051
2788 0.7961491883327034 -3.2500467061038023 -10.061479046025951
2696 5.7174782147254195 3.5588276387756226 0.47842880149210265
2406 -2.4774117792635595 2.3613268587258 -4.4804322651234765
2153 -4.2170337923896515 0.31393745795460415 2.6985016747893473
2229 -11.675400556264925 2.3413464944982336 2.6612360637161654
2766 -0.6283094762239539 -0.2809115148332903 4.317534078562859
2243 3.8522322409973717 4.054748612707123 -3.511332246050936
2246 -1.391230547329374 2.64013124547975 -4.72831928679944
1666 2.3533679697391303 -2.5656348485553764 -0.6370459730118674
2815 5.140811252244948 -2.227197499234983 -8.329813555287936
1646 -1.9982540657682983 0.057193291530410875 -4.692566091090162
1159 -3.6632307902487606 -1.1242104896313194 1.2961163150709543
2411 2.0470677611527486 1.5774274632961445 -3.7997326818049024
2504 -1.788419999250905 1.6212790157813135 -5.346460477470364
3008 -4.264537283957872 3.771470564524071 -0.5207274861238147
1867 0.4875372254782914 15.516996392301397 -1.4169245046097918
2782 0.1102029784899192 -1.0831380419690844 -5.327030059586889
1948 1.6422892664220778 -3.1594020222170713 -0.8736708355007488
1553 4.576081558559175 1.7751106181516414 -12.964347044220071
3266 5.943964349396805 0.5606905453544923 -1.866416007615566
2331 3.3576812831984353 0.5968671431193545 7.369133562129233
2128 -5.04614370345721 2.1552940315559397 3.7438656665585786
2294 0.8750967491467596 -6.6643882333160915 0.8714097488914856
3061 -10.768257090447303 1.6850181463731013 -7.9622533168491305
2804 3.704729103932467 -1.9070977233913506 2.8491204864791833
2764 -2.336127823313393 -1.1066039010248452 0.08242050836930563
2242 -0.2302939926060469 3.919011482254364 4.670368764351113
2496 -1.4559882654563332 -6.61782885404295 -7.274780456463225
2098 2.68572057896287 4.463110378291672 8.260450182079083
2554 -2.597086794353067 0.8211937894053168 6.458109673864861
3015 2.3362758405930184 -1.5093983892584288 3.2875611904148507
3277 1.744688557952092 5.364461101192632 1.073688676410557
1905 0.5553199950860849 1.741587924547642 0.243332433794169
2517 -0.26825896036913766 5.726852757073474 1.4498489392865674
3253 -5.4113541271146985 -1.0462296662634896 6.225340235424749
2656 -4.028822084153318 -0.3913544009596394 3.4490931902284676
2232 1.169951965894124 -0.011219994050193735 10.594511745749802
1538 6.407020797635564 -4.4611319012686454 6.117055742223748
2831 4.093563360768208 1.5138123110991681 5.48310827062953
2559 0.644423087744234 -0.01597609859067301 -2.74865705055107
1740 1.058743064118899 -4.284352217376623 4.7871943388188445
3314 0.6488927123299049 0.991400089689177 5.823158872380633
2711 -8.38299233746147 -0.23968084458628702 -11.408824946611583
1537 -3.842587261951482 0.2704086812793111 5.85139589245091
1625 8.95817267277113 3.540566316783001 -3.521048208954483
2202 9.918948940525704 -2.2958428094433807 -0.37141147832224136
1007 -4.77322866279995 -3.646784270270852 -3.381137235842535
1847 -0.3075815311478189 0.20353795523661605 5.323648860667277
416 -6.495534981936616 -5.66360450287729 3.5645031320716467
1278 2.5202442356739176 -4.333548536356339 -3.4069159483074345
1782 1.3509099738668893 -0.9245575220102686 -4.463138549958993
2541 -4.256155809473194 0.3582148163289251 1.6308884900372038
2930 2.8368008925382067 0.11887529518239377 6.677125656330974
3281 2.0027539722152206 2.5543609391318154 2.5419111152742797
2300 1.2147677681594322 5.642021884022867 -0.647067935522863
2240 4.0778664172987105 -2.8248240449937483 1.9698129721893693
2274 -3.3422072122873243 0.948912602254179 -3.8206120212052883
2557 -0.3287318047712552 -4.571775649441923 3.25436090048267
2255 -2.1123436158734012 -3.85638070973147 0.37376799626854357
1360 -3.052562255217203 0.021050025354578002 -0.2087798088722045
2305 -1.8052037388318012 4.019220068419237 3.3985701507118935
2262 -1.0329620601717375 10.561327708438796 1.0864682816336493
2525 -6.477800813079776 3.5798750665808243 -6.688565743884001
1732 2.470298416987918 4.05407703543595 2.113401094445806
2493 -0.10566692137193706 -8.21678080376668 -6.92790186005055
1794 4.069202505308077 -0.1617902760976173 -0.6281876649442196
2071 -5.197654791846142 2.464764317966743 3.245154495893283
3048 4.410124706192104 -4.974462121603091 3.481021369035465
2119 -3.319796548373097 -4.243658674025262 1.0895791074512584
2760 0.7562163698542508 -2.513542933247862 -11.211874923790653
2779 2.9292361821871467 10.844493523326847 5.953380642064321
3102 -0.8819650621902378 4.382993328525956 3.955857798928532
3306 1.1548042512393488 -3.053941992631545 1.342565220336967
2338 4.0340626471063326 -4.400170801121055 11.774231631274032
2722 -3.1490747055431507 0.9092700170535564 2.471591579523588
2847 -2.4580969056450037 0.7243662114187863 -1.4670522954529572
2564 -1.9064744245847924 -5.128159791892137 3.1157497939590337
2503 4.241146200460148 -1.656004930442334 -4.246934760787476
2726 -5.524141671406593 -0.4684282948616985 3.6378356866417945
3077 1.2270594358392732 5.5369726331319 -3.1433001712693205
3305 6.491951940989878 3.705806684034646 -0.07124559272985138
2791 3.7462168519314654 -5.681243571400542 1.5432528556535756
3049 -4.200516838135732 -2.1142545144573877 5.220009028468962
3074 -0.11790094034429974 1.701608124855282 -0.2547557119483145
2299 0.9462176123398784 -7.063934470722908 0.309256502121513
2621 8.655253229512732 1.4137420297501726 -7.336267804070683
3301 -2.0749820253640556 -5.004125345315832 -8.013007547871181
2858 -2.869554963178281 -0.6395797721186507 -5.537895116150769
3019 4.3045443925483 -2.438389889520435 -2.4538408648905268
2773 0.5762237007364792 4.210980805460434 0.22554646607186057
2622 1.0742758924672373 -0.915494950170831 1.8829680796670971
2587 -3.408486853615892 4.041569277117331 -0.632710150316409
2595 0.9390017065201504 -0.29407927793407745 -9.579421858511676
2339 -6.809927304565369 -1.8518216442104376 -4.31513936682702
2491 5.423130091646671 1.5001854147186087 -3.353334245630029
3153 7.432171604620129 0.12254062413773265 -3.36837951195306
2832 1.9708818324718054 2.811913706827887 -2.300682025877311
2275 -0.8889995486579192 -10.728323637434865 4.355206182519495
2601 0.48024072799202056 -2.9055773787930055 4.972870133811787
2612 2.2432572713089733 -5.042512594361342 3.2443374762207866
2386 10.416096475566576 1.488004620094777 0.9750494885506448
2801 5.894362337853507 0.8770096053223725 0.17592488569505196
2830 -2.628001804291204 -0.5483355753060074 -3.3468413268538084
2615 0.8276471519555634 -3.8037641863300706 0.7409554981379652
2031 -6.220106318691384 0.5525832128702846 -5.095991364534424
2768 2.9265419786080176 2.6530804571318924 -6.5273580118708665
2647 -0.56791320706979 -0.5785876692572204 3.842610995390161
2087 6.92440851949857 -3.167495100774981 -3.6208455471735586
2556 -1.906708672908604 -0.41692621596471235 -0.7211955167504996
2834 -3.013622886005615 2.82527227192791 -0.6196360192966193
2547 -0.4550446812953018 -2.7771673224791735 -3.1739979170917403
2836 -11.26863960343443 0.16322907608375994 6.534765010242017
2571 -0.9767319570475689 -0.7255559249424469 1.463241108041456
2542 2.952825737322357 -2.4029225440573128 -2.9452995562598234
3086 1.1935252152145797 11.059476171466784 8.141896825629184
2803 1.9675526428223438 -4.032026843805302 -1.750037973228313
2508 1.870805118222495 1.44370568812284 -3.313927833028717
3089 2.181707645223793 -1.343469901724939 4.445534459724458
2934 4.057488667162592 3.9254281108286557 -8.564497560361195
2835 0.6205098925597038 2.459727054205631 3.44462221656778
3034 5.236549828194477 -6.794818979667818 0.20255028556341978
2080 -3.9040265784643617 2.591585934341045 3.2622213082998224
3157 5.183816754795321 3.4906229000546567 0.444094700381356
2365 -2.8035620153052103 -1.140410006447451 -10.187526861509664
3118 5.938463833891937 8.864717417352697 5.705057860282982
2102 -3.6254991105768397 1.7732615372904343 -0.24446282763201396
3125 4.232812769246206 2.0896667865937792 1.2546509373680756
2844 -3.826623895419387 -3.309549134371707 -0.2786982780358087
2852 1.0593101071126831 -8.905771158250449 -1.2445615083778727
2583 -1.1551934869520728 -4.169463993676222 -1.1945384793755627
2896 4.7869651008607566 4.98716074094041 8.122365537053884
2839 3.3788833247270995 9.877731049094134 -1.7922457422962865
2908 -3.161663254745586 -4.882674323925065 -5.454578584792238
2808 -0.679478605045517 -10.381210788725479 -0.20547579030600266
3071 -2.1263114682047597 0.33276048502434996 -0.8408635849308095
2334 4.131766256456488 3.5935903382270964 8.576570032289565
2657 3.9990124260389783 4.4852626415470676 3.734401422958631
2874 0.7577382288804212 2.359463150857754 -3.545862812100543
2620 1.5447949039055646 5.019519579406564 6.004074894019228
2842 -2.7468690619589125 -1.0502390516505724 -7.126592491654346
2563 0.9399062106090967 -2.080477191994865 -1.1095448521296571
2884 -1.8007915355097508 4.7149592116574714 -5.042527160109354
2846 -7.4373489185366966 -5.248155186960624 -0.5472743029896756
2867 4.232097242764419 -4.030220359350124 -0.7280315600053826
3001 -7.901772304648643 8.910375373391641 6.8083358152572355
2076 0.8141107576480446 5.358039333466362 -0.9713106894607648
2513 -2.4742151234632264 -0.5830786933948311 4.81745087391339
2825 3.568865753283469 -2.092023808801638 -0.725399473107667
2353 -2.644326116711101 2.6534777523413524 -2.8495794378710673
2869 5.242867511860925 -6.050390724208563 -4.430504525930634
2820 4.664824102181907 0.28509374544431365 5.350019268814489
1706 1.5873521328471918 1.68363760172666 1.2041868974925933
3046 -3.463356053246935 -4.478997451142279 -3.080918611703552
2593 -1.8474987276047832 1.2547600299103934 -3.4915729593176406
3137 -6.846757835471629 -5.15179479580183 1.8740349423160871
2120 -6.170454222098648 -5.5191692384397975 2.7896179838474415
3133 4.447211433505563 1.91706856632985 8.019748980763069
3110 -1.0256608127652946 -4.218151520092105 -2.6500826748091804
3078 -2.7118837843027 4.984000432929478 8.523704336508361
2683 0.5334454100816304 1.262983784995625 -5.916953389624465
2817 5.432871149924148 -2.4176047688369975 -1.0291206842268736
2369 -1.7824588775280938 3.1510673820893365 -4.620537473960851
2394 -0.9104169318428019 -0.5473901660252496 -0.9903024223197815
2792 -4.022308883583441 0.748179135179705 1.025816625608683
2912 8.421655060574231 -1.5406366210661462 6.4805345866253985
3141 2.2304290479266826 2.9901056534473236 5.826599985692294
2857 -2.7983368195298493 2.7330050241980435 -1.3400967294846162
2856 2.280965915404566 -1.420296379330207 4.500490292242925
2670 -1.4904119770085051 2.4888828438663313 -0.9231410042099891
2890 -4.290503111972707 -2.704930792637746 2.161806215030553
2793 -6.85358231516 -0.9641206791170994 -1.8887239847199024
2730 3.112887004465934 3.3886376998932866 3.0987348159685824
2107 0.24145709974035384 1.984884681350147 1.2694343685805507
2315 -0.2062580627669408 3.615977736991067 -7.169898840959907
3060 -0.03233748365475406 -0.19072846523929096 -2.300403938464727
2855 1.428030316015364 4.546319179302958 1.0185695737384093
2599 4.826922784973118 4.092559556483869 4.36182058880831
2669 -6.909089835786637 1.916261461531955 -2.156143711035249
2384 4.706070510037007 -6.221975934574974 9.136704351604239
3113 0.6103950168720652 -2.543500749544493 -1.1329929355124415
2351 4.74114608585313 3.636377664158063 4.05186175914906
2387 1.9689498603142936 -0.51466280400401 -0.4991158994502063
3081 5.678929578611258 0.8810493366044256 1.6087591718240057
3150 -8.076817535293987 -1.1053548226310144 -10.671203878280343
2321 -10.589982336766234 1.7160215714733187 -4.494450567587714
2576 0.7625000481312935 0.25285871657452985 0.017818447590076787
2613 -5.18315796741524 -1.8448605425340456 1.0584351528721772
2865 1.0037478296089126 -6.9022154605491775 7.545962684708439
2089 5.981079160320575 -8.160410582508533 2.4578505749614292
2639 10.16412394328316 -6.509160469037676 -5.318942545075083
2393 0.13821011922371215 3.9182677632850744 4.743118844759765
2637 1.5419735527292158 2.05100357973676 -3.604744154277425
2828 -1.6719685673727585 2.7369584606397104 -5.903210404978207
2614 1.3587466401287454 3.906485285675092 -1.5619835519169758
2636 -4.246869296083431 8.204084824680942 -0.2315577610926523
2932 0.6590009119654111 -1.1031915500496277 7.2984172004440735
2901 1.9051979522873848 -6.520967883477499 -6.178327669175378
2675 4.138843232779248 2.6400589465681508 2.7931521549167084
2677 -3.5571085561546307 0.15429561214071205 1.6256031965644056
2929 3.1712917078256897 0.1099846578932603 -3.398317012270653
2719 -10.5016907578237 6.845117155746114 -5.163470580356496
2395 -1.9077055516925576 12.713191879328829 5.263285539867371
2876 -2.707754172885395 -6.616247064522905 1.2476610598295952
2939 1.5954706979284266 -4.022164947176982 4.465352401829878
2590 4.894381267975498 0.26022411954907454 4.677357143188814
2322 -1.5076715766396238 -1.854488188661588 -4.246256420850638
3070 2.131605506444362 6.267641442437052 8.919061734296832
2907 3.5709626609161647 -8.355312994116527 -1.337791540373738
2398 -0.4819174782467394 0.5000308913850599 8.141282476637688
2811 4.721881897504178 1.8945525498916183 -1.6985943541618156
3122 -1.0522983171188682 1.1719721675665475 -5.049733899104877
2655 2.03012406211779 3.9529975814190332 1.4492464006070265
2976 -0.19852996162624867 -0.12998904713905143 3.6401325590334337
3098 -5.05412235627232 3.620940651262911 -0.47902849920271173
2653 -0.8689185208170314 2.732475420896309 0.9229973079664229
2391 0.10829609361073628 0.4204066706203716 -0.1843874017993026
2132 5.320727280830187 6.560681872690422 -4.374833576671241
2780 0.4032986030672844 -8.814153699898853 3.0040739744741938
3161 11.26902409906109 6.818236000061098 -5.728169969020722
2687 -4.070561270290307 -5.857852239795239 -3.815068704298301
2941 2.1306041711949737 0.5747696208161723 -1.6913174882944917
3198 0.024832182881964315 -9.210205865740164 -6.137433589705453
2952 -0.23604021953564178 1.1542204470682569 -1.0293724079598658
2399 -3.419753401469424 3.6575256334647097 4.149494666277119
2938 -1.3439385927274639 -1.8762270786433932 1.1909017483847986
2624 4.436096940728437 0.5864533913390626 -4.592535472567906
2333 -4.053437479107218 -1.6368489984014318 -8.822389505281015
2845 -1.2990144481672605 -0.05391869327353513 10.119336645972068
2552 -6.646957405478859 3.2659687937277813 2.7898518574676627
3043 1.4859838597033386 3.1112116903820275 0.11990609433226354
1912 2.0496431207119725 6.32802759962528 -2.655806718828574
3166 1.3667541692975687 -3.677180873430139 1.653858153756421
2148 0.8355429245213399 -0.027189280777348716 4.832807949184165
2688 -0.4728792488818377 -5.548704114524326 -4.119456826129059
2344 2.2049599237987536 0.7086610454458986 -1.620308178733429
3041 3.6445228686553772 0.576031667840587 8.494783214604153
2878 7.385896156064461 -3.086041557061534 -0.08815223448566023
3194 5.180281176337454 1.1869769525952911 -8.227130309657628
2721 4.124058405417738 -5.222405207682336 1.3672093054567047
2718 -1.1347587109389652 1.4946894001876443 0.7777743412065035
3173 -6.6855044954064065 -5.864459033916611 -4.71204997180694
2179 5.142961848003296 7.789882080413196 -5.119418849719944
3206 -2.032200121832115 -4.623327858277131 7.486664530819119
3177 3.57348931605918 2.3013677873947445 -2.3551298093759065
2728 -1.4986107542570877 -0.30269637976897834 2.54826297020402
2366 0.507872977060727 4.596375738912044 6.813791053064599
2977 4.35838789041359 -5.736002139562337 -1.9830432603698462
2476 -2.402670943726754 -0.960439972770362 6.171317476236902
3210 2.002343287796592 5.738589071819499 8.322698692210938
2978 -3.2176837364178317 6.030669138350602 -7.23225154230517
2455 -0.1878054218684012 -3.5249295154302276 -9.330323938354931
2627 -0.8361153685766765 5.6578676107821835 -0.12943793082549102
2918 -6.246927856813866 -1.6954474852842791 2.1501188930881456
3169 -2.1663096313433328 -0.11541854162727239 0.08962522791642748
2479 2.597919851805282 5.292988980480958 -2.999576306916869
3201 8.840624391476739 -7.129309740660972 -1.0267392043270334
2407 -1.508289948032738 3.519456625008316 -4.4012494353221685
3214 -0.9216099228010903 0.20223213005994325 0.8490194305068473
2664 -1.2815606885342228 4.008758995409386 -5.169627397554054
2920 -5.796946692095307 -3.7393349971826377 -5.365004557960262
2954 3.587638146968247 -3.635982717798443 10.657989741901199
2924 -3.3724066988050208 0.05098379834131453 6.438136620383776
3209 -5.699255579727364 -0.39216015338086563 2.0382735545657313
2769 2.187993773092713 -4.003167260248434 -1.4504793814616557
2531 -0.9003559305117538 -5.2961231830071975 -1.288615610168738
3178 -5.657109642467113 0.5567237657849341 0.9235771906905672
3241 4.679196255878308 2.326901137437732 3.7469745201207947
1959 3.8906704371853675 -0.9569580957298882 -1.1169034198606476
2312 2.0514789082012963 2.50177520150701 6.61457698925221
2894 -2.283663009082712 5.528943836321022 9.724030293159506
2937 1.7605728982035491 7.670129885005401 -0.16298887691354766
2959 5.663615276014367 -1.0969345978469291 6.380350221825141
2348 -4.312148398725159 -9.640457832278384 -0.9242945945925339
2367 5.5649359996272745 1.8294667558864877 -0.276891547592487
2674 4.270244869060734 -4.238861953725387 -3.7355110273876377
2949 -4.599634921772076 -0.699212095302418 3.6892042613885794
2955 1.165852023846384 0.7518707673971444 5.240440078552108
2134 3.279667141249132 2.6145488492251174 -1.7817980438855612
3170 -0.16146665369579505 2.5696005433984137 -0.37756546700658267
2962 -4.075261095287468 -8.113580143883164 -1.0410176568264327
2963 -1.7568968140010033 6.970907776709096 -8.973276552499724
2996 0.1083119276541867 4.558564687159803 -8.241538877010825
2713 1.8457932444426646 -6.128939690035386 -3.3036470550278683
2519 -2.057535975919154 -5.949463126844542 2.5463853265253955
2412 -3.171776016397722 2.026335473601969 0.5819595881920729
1970 -4.369256679876843 3.660394281775494 -4.52547437344201
3021 1.615152373775625 -0.4301531557736859 -1.8820350094646465
3066 -5.363681324182737 6.245474105630472 0.2528591811923239
2644 1.9405751799354962 -0.8379723991189733 0.08795289083748078
2965 0.0807657758400126 2.7895752044267916 5.043080994303936
2678 -4.4008414490693495 10.63434679564378 -1.3406980397217096
2652 -1.1484556088397073 2.5717342015227422 3.478554964225508
2813 -5.58788122365841 2.543662713630356 3.559179089511654
3213 0.09374740217975788 -6.583710814609728 3.53744090075103
2733 -0.15184057199014095 -0.9778236618735314 2.037767873475498
2716 -6.765862369280548 -5.533489175839893 0.5787213795676047
2746 -0.8803934745839055 -0.6869726247436586 5.165642331435267
2389 -9.874906584648482 2.1095004660608776 -0.24445555402860128
3186 2.2632288804526652 5.544286618812629 5.111994555898027
2648 -5.544232414657777 -2.9486419115278104 -3.419290628037388
2679 -7.10639855305057 1.9862961122593332 -0.02361468990785541
2972 0.5150169714885446 -5.076925374148187 2.016250438954718
2909 2.8369792080840956 2.670916711518058 2.7831646263897665
2964 -3.7256771352036613 -0.6168448133822131 1.0376857853780568
2784 3.115604511724018 -4.403546260882215 -3.346206752714669
2897 -2.863717443186943 7.8273059011702495 -0.5183553419912257
2465 -1.163837538070241 12.766541804335723 -8.161441674313172
3197 2.0338776133231424 1.3233322685630353 -0.7680756348265616
3257 1.751914105633371 -1.81092136266947 0.9680317114285937
2263 1.2318396425586449 -4.371227597185229 0.8207125290028806
2710 6.277921281165241 3.904517547840752 -1.7705725467036575
2943 -2.045426846688974 -2.4818128990386303 5.758694199626958
2750 -5.106893495984847 4.658639291237197 -1.7974870216163845
2724 2.3419826839051536 5.4879267339372735 4.22462584791171
3030 4.6643378625691785 -4.474888500728263 -0.6342796838820925
2162 5.234892824394894 -1.262308365938412 -2.016852047969484
2475 -1.921527214316649 -2.005382815629195 -1.4452856312200941
3297 -8.469035427567071 8.03628459948323 2.4039969302942175
2973 -4.238597016000615 -8.552679840801774 -9.160772590080407
3040 -7.251017132140906 -6.594797096295764 -6.247050887664033
3218 -4.7344116402268375 -3.8619827800359485 -0.6340356604300861
2695 7.150508251634523 -5.032300780850695 0.7727721984293533
2633 0.469916433629454 1.3609858940167825 -3.851440042108865
2979 -0.6456446434506151 -7.162205120178545 -1.8135979234057178
2950 -1.2782273367125965 -2.2743043797247253 -6.692175043337791
2725 4.629297677310875 -6.2865708187750045 3.768846625811512
2849 0.6091317074830038 -2.622747576088798 -1.485687385636333
3202 1.7351640415078982 -2.7451441715191605 5.158126187834843
2151 -3.2923223037247755 5.258636250108133 2.818595732978699
2699 -0.7734352508117522 2.588300256563369 -4.712927904923379
2565 4.99878876913176 -1.8354603342449132 2.7932389414351118
2821 2.2351436629051795 -5.587292574153875 4.829577698790638
3018 -0.15829345417340757 -5.535593969073998 -1.8425701325990294
2790 2.292381078994448 0.414326844869684 5.586318376313324
1961 2.7764728316003486 1.9908440998708476 -9.744399492604845
2216 1.215178507039523 1.672230357055999 -0.32268011909775574
2732 -2.626585630078301 3.6711874004406644 -6.335831768709406
2663 0.3368008340772415 1.2725059102502299 -0.26544896262659323
3265 -1.5730169925094786 -0.49978368079075336 1.1721496896842198
3309 4.815127882876979 1.9062995252388057 0.12612366859581348
3013 -1.945836342157289 5.504218406098167 1.2134667248549933
2570 -5.258114279435674 -2.9121596321423455 -6.706889756996841
3146 4.618574688275369 -3.592551260224333 2.5821490102379925
2672 1.3499053908826477 0.8070969224725442 5.144250021962767
2536 -2.02515225792601 -3.210492617443105 -4.202287855345175
3278 5.82851836381266 4.596056854989716 -1.0184485694948868
2743 1.851758392241557 -7.348540284138984 12.97504813413577
2374 0.5576319108778698 2.1309126953640027 1.5273304815802784
2729 3.676972263596055 3.2919691544468814 8.755902782685961
2736 7.196435152307568 6.761782792212262 1.520168395431865
3064 0.9418946741778106 -2.3550683632728857 -1.0664054855199496
2910 -0.4991586142324833 1.3349035892273862 -6.7668672273484365
2451 -4.199905517767932 -2.0964934811530522 -3.5307507196620334
2762 6.395994412227336 2.395530665364086 2.307833326287786
2983 4.439194505250617 2.6794155250769895 3.600761874601654
2984 -3.3352621184181266 -0.8298997723933139 1.3921225307382827
2453 -0.5090453044786503 4.262199469985523 7.416985796522568
2708 -3.749162300958808 -0.42264643366228266 -1.6049029725045953
2478 1.1302206485498743 0.36193986814913026 3.335008230759167
2774 0.09783063629363684 2.9751395288287954 2.0589174141835143
3055 1.9385262223534006 7.889669112905148 5.194508265546567
2776 2.664960404271023 -6.189667957303701 2.5448382869268307
3165 -1.241370612442489 -1.5945540927222301 -0.02824762483080681
3230 6.315590759498073 -0.12619644958694087 3.347089813230462
2906 -4.455027035679795 7.191921775963214 -3.124608896561938
2390 1.118094163336229 -1.9491576005912465 1.4922958440954317
2994 -3.2818902810975534 6.38019599680951 4.344954963600914
2709 -2.0557796219092666 -0.37370747145636257 3.9085830701669915
3285 5.530754169209411 0.1767134242467448 -3.5026839705452195
2489 4.4042564908241575 1.090609546725828 -4.27712565009492
3003 -4.744045759677803 0.9972185829950323 -8.498443955880713
3289 -2.7600341443429084 3.360105308614364 -7.167130760463005
3233 3.313947064864111 -4.196827987924673 -2.229388254672739
2560 -1.062799470099225 0.9454922664669377 -2.449741109429874
1176 0.010038790604005046 -2.5965804851484027 2.1995571335336876
3254 1.9024031386795286 -3.4739581782777957 -4.594334573513057
2457 -2.4058395430368944 -3.1342049980220126 -9.338679488341603
3258 -3.2095100247467236 -0.764897296832653 3.4004248307934195
2253 -4.019044532932665 -6.468669489339753 3.58590215235095
2778 -1.6770786046499322 -3.4847229074532593 -0.11934026483697091
2236 -7.097901792941163 -7.408671919032918 5.849380458413119
3234 4.438796638927617 0.5780328076762971 4.364339782883663
2518 -9.346252986291313 -6.212474343440047 -3.250801141118222
2749 -1.142573464632418 -1.0122503011136281 0.5988354857935774
2877 6.0963989066346 -9.545518630302542 -0.108152931467589
3014 -4.710244968684055 -1.1657137602064997 6.389173669219602
2340 -4.929598743543928 2.94489993745348 6.478308583614435
2247 -3.09307954544411 -3.546142581062665 6.792935548949414
3002 4.302856915984894 2.447575405078846 7.253701025484337
2686 -9.936928022760087 -3.057803137938412 2.966858174012129
3010 -3.674851021780916 -4.654545967048716 2.96836970180356
2270 -1.3175228306958038 -0.9491713139405559 -1.697712910100388
3038 10.349696310205399 -1.9738033939878714 -1.9917394611782036
3302 -1.2417769649319614 1.4852161561363846 1.4382540659772278
3044 -9.739913605056167 -1.707529015960082 4.7149143821527115
3035 7.426887047990341 -0.57703479518144 6.5605574129174595
3073 2.442818539655629 4.071780106119 4.051806609792536
2758 -3.0304239118919214 0.43212548515851246 5.277752716671585
2980 0.16598382190398656 -2.7604943351198106 3.2251520286424196
2982 4.493171737294316 -1.799571744837194 2.0990470955017058
3016 2.233384409941464 3.749841613829807 -11.426578035733744
2986 -5.017950158950545 4.634915739111654 -4.70679649230832
1708 -3.0949385871746005 4.347587348333031 1.0104057539054785
2319 -6.387726817266361 4.194466977037504 -1.4159854729074834
2794 6.476819806363418 -0.49666104547742973 -0.5569222823130826
3024 4.260568153020138 8.973523015004726 0.5177201140359858
2041 -0.7973328784688553 -1.4782068070870158 -5.533358815681665
2946 -0.06542247308489783 1.141925020282425 -4.623791950423374
2744 0.5372063274490605 2.391303415097994 -0.34699346271070175
2827 -5.087120888005657 1.436667987528049 1.795416647945842
2738 -3.9385491402826776 -1.390163623040723 -0.9131430822571931
2511 4.228149691859476 3.38697762468247 -0.9184796552563625
2032 -2.138687754718104 3.415289380607929 3.6607089727327313
2775 1.2487160789719227 0.5653662485258713 3.3223977517789276
3274 1.457872779586712 2.173467656071154 1.6438851160151828
2285 4.205532042370879 -0.07496468072137522 -1.3045736353670903
3022 0.8900941682612401 4.216103911774805 3.2141987529464484
2588 -2.3650204310180594 -1.4659018515092106 5.845158579147919
2081 -3.2968909309095493 -3.921705968625286 -0.687299019806939
2502 8.127123108369831 0.5128516085489923 2.1630304128556115
3238 4.501060188869501 -6.6719611384202056 4.927318710913134
2797 2.746225892823896 1.8270582778869557 0.0897910891875368
2252 3.12876681175764 -2.5374012507881725 -2.6295770133046164
2251 -4.160433747133198 -0.22205401902959737 -2.4733479361669404
3217 2.7325993529698716 1.2101623799566505 3.4403014823597804
3023 1.820035585786909 4.936047124870555 2.4873407788166024
2566 -2.87543801173046 -1.4448139942631941 -5.447831443548682
2345 -3.8261734144047628 -0.9163199836462524 -1.4131696322401435
2783 0.6327507975668011 -4.338671210399585 -7.254024688214577
2789 2.689255436201332 3.5552796574847556 3.8460816411503904
2940 1.7041244547153356 -2.75259222369194 0.5982622015936039
2742 4.779533859958374 2.648916366874089 7.3702237849258765
3033 5.144069860035724 -3.2667402526525193 8.323047626646789
2740 4.48959441958365 1.2545884516867152 0.04293324659335613
2515 -1.3028774901376337 -1.7930941789867658 1.0727510520445058
3321 0.8985380517670132 3.9292350558761036 -3.478855410540917
3101 1.7287097967770706 4.829656342895972 1.1552731880768385
2459 -2.7282483633519687 5.049161884023006 -6.02100532175873
2712 2.9199356547238735 -0.5882453282727156 -0.12614424551348338
2999 -6.2203801474880756 -1.0581950001547136 -3.3160650287439757
3004 -2.0322174875328627 -5.860042714305878 -1.2348039828782016
2870 -1.2103241133093063 7.353862334759704 3.641446504901677
3062 -1.6070839524447424 -6.01371137959837 4.244050091802857
2879 0.5608538015956944 -3.7143122900763674 1.934999629850029
2755 0.348347496365165 1.6572546400316492 2.043028502367993
3093 -2.7463414162770015 5.366844755004124 3.1524530846749963
3029 6.154188973626909 -4.467945256716926 8.957146152169079
3261 -2.3387380907750352 -2.318390919239554 -3.236933839857282
2809 0.7309700132862822 -7.741569472532269 7.989486138885608
3042 1.6027140388898182 -3.85153435474484 -2.420485109800967
2555 2.4598389368422566 1.6090651943324346 3.0595806625105775
2936 0.09390570976522167 0.0625095937266968 -3.1444726888041092
2841 1.4953675865348848 4.297618951778948 2.7177948753044228
2514 -1.8849004988588172 2.6964255747583574 -0.804579775310409
3031 -4.977448677176653 0.6528027905398723 -0.746194456233872
3129 -3.2296008181580524 -5.681970570179169 -8.204365377913291
3109 4.099561172523619 -1.164281564007091 3.342780263901431
2756 -3.6536084066140084 1.5888968454148107 -0.7029543139642295
3080 1.4313756943832203 -9.47628595469973 3.4454451470232637
3107 5.0782592708389025 -5.0451063780934 2.6447033370022823
3330 -3.0543662336957773 4.037321614143725 -1.5855084669398474
3365 -0.9879621802554018 2.0735839997964662 2.1424672987185773
3076 3.924903732519329 -4.705380545239745 0.12548873425480161
3361 -2.359163101660265 -0.8583027414047424 -7.460127527775684
3075 5.68711773828409 -2.582527543033698 -4.111097466368081
3333 1.2485260396461266 -11.867494152836501 -1.6653903950731923
3329 -1.5691134201940038 4.81705664447578 -0.8540793230166099
3134 -0.04019761186545061 -4.3510625237625336 -5.051016474999416
3112 1.497264108943965 4.590004256370516 3.583375598654412
3334 -1.123426531755901 6.157964156315696 -1.786390300537429
3336 -1.2543971894234023 -0.8011435633299869 0.3648377380346652
2796 -2.938982309786955 -0.9149184912443724 -0.8273347533127559
3020 -3.7887814678745717 -9.06787275624035 -2.1900557988156204
3079 1.5327235874923402 4.51896611969647 -0.5142865263806814
2826 -9.560552425451661 -2.699338057063602 -5.734103382574301
3111 1.4063405700921514 1.7385073797641393 1.5325554295646282
3084 7.443427642062418 11.325071636155572 6.106441751596324
3115 -4.2093927501208706 -2.4239060888190136 4.963999772465735
3338 7.046803314611941 -6.084838847074783 -9.720108392856774
3369 -9.357806069154242 -6.591166294739656 3.238620232068063
3337 -6.648992195469732 -8.255572634390626 5.7643537922197154
3088 9.01174223892264 1.9813608770012898 -8.471709416673272
2731 -3.4661761422293713 3.537276889285882 -2.864595997775438
3083 -0.7018732351201915 -2.2619214475029947 -3.0194776164741075
3341 4.4868529768844 -1.4654774995652153 0.2668538007691178
2895 -0.41098477222069385 4.12972080627847 -7.102646141162493
2580 3.0659084107997856 6.4722463387854745 0.1294787428074065
3082 6.205950847130662 -8.05665226142074 -5.07607054197004
3373 -4.2277302088826705 -0.8713778389501757 -5.366098336249457
3318 7.087048642660586 -6.782028583154748 -0.9631023567746289
3097 -10.595269336463586 -6.254834058131199 -3.819424611702835
3092 4.117509210276843 -2.4095642413872076 -5.823044659603272
3119 -3.823003564537712 -6.806338424755371 -4.428533328265653
3342 -5.84863286678098 0.7773342933208235 0.897066193002986
3377 -5.859578815176666 -3.483954588494768 7.0758532249446775
3346 6.889132044104477 -2.4410048816690684 -1.4091101752166864
3123 -5.407313982316638 6.495487118879816 0.37805644689205187
3345 -2.610739826143393 2.9930100099747814 1.729046705743823
3087 -3.2151904552530493 2.4573211899286815 -0.5472740720929171
3091 0.5751766203261616 4.72288013661351 3.1994244187987197
3348 0.7660089121803371 -6.637049950720829 -3.5376067514410052
3343 7.177354509986151 5.103584339639712 -3.405772656261649
3347 0.8096116508434071 -3.9189019005717736 5.555376743180862
3158 3.124834979000276 -1.0852577772514123 6.000415123162036
2840 5.456485640691433 -5.095040711760725 3.3409444269596777
3094 -7.709441864512486 0.10822107057483787 -7.886287604651357
2868 2.094015087687496 -0.3519456054709764 0.29972771303177925
3096 -6.344383802273337 -2.971152770524305 5.42599699479602
3100 4.204397870563416 2.0374223071441686 -2.5525882992389053
3127 -0.8766582724633527 0.5106793031409625 -6.248385356482081
3350 3.1402604164549373 -4.063236386882954 -0.41482083937191055
3381 -3.685932327563923 -3.8094901408567403 -0.20250977082608845
3385 1.6539842223067691 6.605812516187231 2.752959697929169
3349 -1.8384216504242676 -4.466095355995159 0.983794422943471
3353 1.8810245544281814 11.070565476904157 -1.4250572429578368
3095 0.2650006986051191 1.275279607431052 -1.1725737963844873
3382 8.658975667344816 8.215408706771008 -5.989189798095539
2873 -1.0645101978429472 -1.1267381634279372 -5.070655361016519
2848 -4.183062196852821 5.543470984583342 5.252717225532786
3106 -8.969326367177024 2.5649784562617737 1.132599609766345
3131 -2.579080700981272 1.9744460231401328 0.03955344397921546
3104 2.084653033777868 1.9869021968890017 0.8371189615229997
3135 6.0063351744295295 2.7707545819577444 4.87735448044902
3354 -13.21544070603719 7.506380380713486 0.9024754086405888
3358 0.9315822957241771 11.417217312839258 0.9093287610456757
3389 -5.806882071758838 0.4183915549761619 4.313057269280578
3103 -0.04974897629576573 -2.419818637017783 2.595353320467372
3357 -6.73637104140305 -1.8098810742213942 -0.3654819895351417
3099 -4.682577598953208 -0.13063338802256716 -10.334331160016314
3386 -2.490343410145881 -2.8319089142978338 0.873593681240286
3360 -3.754001175793794 1.7053296330922971 0.8886798285597226
2916 -3.7295392586159744 -3.900626548346322 6.246745432482553
3362 -5.56896019035878 0.4026363311397022 -7.103941269508715
3108 -4.592875970794059 -1.057251122749345 -5.985329172742585
3174 -8.820859483398003 -4.701519701906824 -1.0406649736658513
3139 8.843206774511119 -6.289053666000058 9.279381071594402
3144 0.768480739196805 -9.829903332195338 8.863530777006293
3394 -1.75982979559092 1.8019442856203571 -3.883753825942896
3397 10.577719990832332 5.074480281385287 8.994907401113936
3140 -10.524981574810797 1.4144587667877326 4.630566501069495
3393 4.951188104841906 0.19195550272999057 0.7952533580609724
3171 0.9776767333064629 4.814030553069534 2.399400181030434
2594 7.53621738147106 6.317373532751018 -3.051142148992201
3429 -9.777376957202346 1.9545254308957676 1.0486965162992932
3425 -0.9597207639904979 6.070071047697456 2.068800867183079
3175 6.957213688005147 5.153544638623456 -8.603783620689322
3400 -2.331793654048495 2.894358133488608 -6.243022328761574
3368 5.876221947351341 1.9189941182537027 -1.754196785942703
2704 6.7152796459511555 -6.5621096669781425 -1.623459114146272
3370 -2.700274165248314 -2.7457065921914534 -3.02752198759787
3366 6.389903728624472 0.07658104241930891 -3.6074574221495115
3145 -0.7296003585481945 -0.5079260695162895 -3.753589982986579
3143 1.4203212096665871 -2.871984068637606 -0.11788065171841944
2600 1.6650501853489577 8.900095287160783 0.33218680227103725
3120 5.4985682720897975 -1.0430011962115346 1.783952820476186
2860 1.1606012877076297 9.379422664367782 -3.627615099464418
2900 -8.950919530073477 -1.3659160735652014 1.833758788656974
2887 -7.5876359459857605 7.59459664575126 0.9102568049756579
3116 -4.014815448303646 0.03563750561727453 6.502001201228591
3398 -2.6219970932057604 4.120331688207001 -3.16065527887804
3147 -5.488562300703438 7.570476268396695 -0.9240680260481366
3148 -5.938888170322958 -4.0140922904241405 2.1373885501170196
3401 -1.9952276203002626 -0.12351114802327617 -3.261421540824877
3402 2.1933278477830513 -3.918552384961121 0.3589759673049183
3433 -7.448984072995455 0.8145019142967583 -5.743043585490644
3152 0.2160219324780803 2.2767741478464645 -2.1443579204827983
3437 2.165136675501324 -3.9528911416388337 2.9712397688347982
3179 3.622152918539424 4.097972924449146 -5.8752300318823325
3376 2.9016659167349728 1.9183382487249516 -0.11663080195222292
3372 -0.8546090616997946 -2.0914165822412647 -0.4509508691588316
3403 4.894702341780091 -0.7281782612184481 5.241009236435606
3121 0.15948220581305575 0.6019111974106012 0.27368607273366374
3117 11.16472425394353 -4.000370716736232 -1.596947423169465
3124 -0.482154636261024 5.02321483527418 -7.831792749894732
3378 1.399319943899118 4.4501722170100155 3.1312017337949265
3405 1.4599756895137406 5.565125077090733 -0.8413298566312786
3374 1.2755598547621159 1.5747698765378884 -3.3348113382648608
2921 -5.630397642001611 -5.327193240820262 1.0514348472073651
2961 -2.8635490157563432 7.071089183332934 -6.729613092273858
3151 4.95133383391297 3.1286309179999634 0.8260797094782457
3156 -1.4501114712979755 1.234034266291801 4.1888358154612995
3406 -3.163693995588603 2.4154083061665776 -3.301061040908645
3409 -0.4961403548463365 -5.556059211913521 -0.8074340110290035
3155 -4.699064646734208 -5.238290170865031 -7.398310042728497
3410 10.563759291485603 0.288984209467961 -5.652756121841597
2904 -3.27442584470513 5.72508089105538 -3.765100691867606
3439 0.16937121210446393 4.961906334335794 0.24834047823279737
3132 6.768842827797015 -0.48832975843363036 1.97915142255935
3154 8.923869555428816 -1.0722316513369057 -2.5638277968469927
2899 -5.75132652234089 1.7475406004907736 -4.184878553517178
3128 -6.778319279056308 2.4028113548632506 1.4031083655460623
2715 -2.7199305884037868 3.5962053863293155 -7.967320466812846
3190 4.033726075483702 -3.6166374267042167 -3.2058757249414094
3159 -1.0011931025315455 2.1325418571564425 7.479768528725634
3160 -2.3110118673165854 -3.603672473854304 2.14736942934551
3164 6.91989801932658 -2.586891915230044 0.2610186816249371
3413 11.847220049361486 4.411191417480085 8.045325395604895
3414 9.149783473953391 -2.437116252923625 -4.939126667203925
3417 3.9637764116382814 3.8534766673676852 -0.22606696595664963
3445 -6.544736618176287 1.3361931907013722 6.912284289127848
3449 10.824928319737976 9.033333803628022 -4.770104900035629
2931 3.2418517284083332 -11.17478450261383 1.535216960210418
3191 3.738785696102621 6.166205899687278 6.300378916657692
3420 7.013374905588547 4.521466445797528 -0.9941046784377054
3447 0.5339552973830578 -6.717150597353051 -6.380988357067977
2881 -3.6740988078025034 9.02969275120515 3.1420867875773646
3390 -0.6188857870995937 -3.0531587247489504 -5.252107857534632
2911 3.85237418928202 3.4504105440618136 3.026495194795201
3126 3.200736483583604 -4.6796625615221705 4.789802428915083
3136 -3.986173079244228 -4.089804836652125 -0.583318035308522
3130 1.7707821739350131 -10.792921638281786 2.6993256016993232
3163 4.681238439592843 5.436727770679819 -2.7086089578174803
3167 1.395714987743237 -5.647637604764577 -4.215952222713952
3168 0.8545956444806966 7.734644341269069 -4.873022284188986
3418 1.0917766475553314 2.6749758790638425 -0.03890456428380107
3421 3.638395585239372 -3.1340694899669903 -0.4298208676543993
3422 -7.682745058306503 5.570132134714836 -2.9313671012209848
3195 -3.22209157877674 -1.6575757458843345 -2.6870677836720938
3199 2.142454356048798 -0.24310055525595153 2.246115722074091
3392 5.5917126512716315 -7.788449829273455 -3.2508629482686042
3419 0.25810076385283903 -2.3995318834673354 -1.4909896158833604
3423 4.3007678407979695 -4.264579531804857 5.706939211858755
3424 2.969530902489304 10.047064980406887 4.407408090327374
2850 -2.8374340807548766 -0.965648419255755 0.40431189802657425
3009 1.5136909510867744 3.8677249011428527 9.504717815052201
2751 -4.226027092865856 -0.4034561638479729 -3.997334737835245
3176 -6.270839696483395 -5.041334486092847 -2.487467812604357
3203 6.639527624269417 -1.9145623740204762 0.9393904226284855
3426 4.379330921311241 -3.356555724900245 -2.654741847315035
3458 -0.9200922385210029 0.23978345684372754 2.1571016359559096
3461 -9.780937195512918 -4.265333198926475 6.015717633273318
3204 -0.4558614229763578 3.675526766385952 -1.3678723813805418
3172 -3.8485867338836774 4.890627619950623 -2.903551142258623
3457 -0.9478159844215357 -1.8629789348688934 -6.388535558973103
3208 -3.782845525167688 0.3269053671273087 2.6786285777849987
3462 1.4672190973073902 -1.713814174558681 0.8095874311054831
3430 1.1867770992476019 3.687810064314516 -3.5054868591892627
2737 -0.9177253276507988 5.642833502362911 4.52268467780569
3460 -0.35411476744557563 2.062407759910529 -0.03624885368783366
3459 4.975624958455772 -2.1104044762288976 6.0851387403913
2993 -1.8825859759291694 1.363997121687117 4.161241826545453
2324 -0.14997812740713912 12.345754683771746 -4.350734149673227
3207 -0.7664439612069164 -3.353170745630231 2.2804121563216557
2927 0.37281208106847036 -3.5499293801282654 0.9131016195116737
2947 -0.0073913976579695895 5.2562293984066235 1.700526248558543
2956 0.00964376415308267 4.944826051497749 -1.6369462952558729
2951 2.6307139238597714 -3.1566882547680275 0.21126202042354914
3180 5.552770639196352 5.593371117511435 2.1589841715845037
3211 3.1874885352034488 -7.16178545504207 2.502482279688233
3212 1.9758371276887632 5.993644995270987 9.595599790964446
3434 2.488058747587679 1.0548505168988636 1.924666003944957
3465 4.774809186954561 -1.4075423805726597 -0.7183386452020534
3466 3.991591523459827 -7.152836717952458 4.87109418186837
3216 -0.16997657343300399 2.729295840491257 2.3294885960426264
3469 -2.26553260091427 -3.5507251036749485 4.805098902356188
3184 -3.6945073974402725 -2.821983656537577 8.739672086965616
2958 2.0872202161875597 -0.9456276093811142 -2.4948952533091666
3183 1.7243204164020272 8.82455969739906 -8.494732667125765
3441 2.763118114807765 3.705775299764453 1.0419331971529167
3187 -2.3444338899827826 2.833089970622455 0.4599113706701199
2668 -1.2489013987875488 -3.512204732957131 4.739970674604409
2992 -4.454142352900992 1.5846256987568634 1.5605788860236691
3282 -0.5582865278355452 6.0876746000068565 -0.6991199878789565
3188 -11.515199768577304 3.101455502456199 7.390166989152545
3215 -8.859550059277671 4.743516896877059 -1.4463878158562982
3220 -7.245404521780815 -4.906549051181827 5.9677849851114075
3438 -3.8793260872103548 7.031616238819482 -1.375308448528177
3470 4.426407275948008 -3.8356834371866197 5.073175669186558
3473 -1.1893703029295333 -1.1417058262702817 0.15818261840525644
3474 -1.9977371238189716 -5.871127638588304 4.30904112869093
3219 3.405935173690317 -6.170658120949217 -2.536188219261092
3442 -3.2939864687838836 0.20078279128361837 -2.970999670735879
2651 -2.368033445770941 -6.200264052042946 -3.2796235130428157
2935 -3.3422116227044505 0.14219701432742105 2.7792917577029286
3192 -3.322592984953452 1.7121068711645404 -8.429757947086507
3196 2.955991442395958 -4.117873503213941 2.3206129327867
3223 -2.333322645654427 2.7705281992420736 4.601212967862354
3224 0.8632902560794322 0.9578404716803466 8.593286643698391
3228 1.6233760282810183 1.832298224073972 -0.660779215120511
3446 0.779413338358389 -2.1707049207962723 1.879116790290228
3477 -1.0947123279415438 4.355763292254767 1.181658120427462
3478 4.897456553278862 -0.62620857552643 2.291287306497869
3481 0.8831747356461149 -4.585365110537304 -6.119601274014154
3480 6.380487893920515 0.9329351938513687 -0.046884107972806774
3479 -4.471788969226832 -0.30010432681162724 -2.873724744758523
3448 6.873147773440032 -1.3857645191462928 4.036150627621986
2372 -0.06098555839008673 -6.904263731015571 -1.191383782440192
2144 -4.686419000463797 -0.5871102577555813 -3.6789813440312207
3229 6.521602066158842 -2.1183792935798644 -3.778708163182352
3222 -3.443870714319272 -2.8996390036541024 -0.3377199572006722
3453 -1.1705769404069337 -6.04141120336903 3.6987549740988053
3225 -8.920798607274497 -1.3742047724854416 1.0202436864641609
3450 0.525413108279479 1.3892307740371055 -0.03016557980409496
3482 -5.837364887920338 1.6303518897734601 -1.1751661824790924
3200 -6.608359678882304 -5.844211951955458 1.9632325102546002
3227 2.221623037141646 0.7647826565098935 2.903986097735593
3231 -3.5210514272136506 -3.6326105417686225 -2.8255693801557027
3232 2.977336408903888 0.5144728545376381 -1.2976062207746653
3454 1.931600437781706 -5.139162980256918 -6.429114701200797
3485 3.392681984682682 1.5643483078257958 1.6269167418221226
3486 -4.134411700618934 4.129548499086169 -0.26770613115042896
3456 2.4359727179923474 -5.582161083985888 -6.99425226858361
3483 -1.7444338156048356 2.439831582466881 -3.0475705169524114
3487 -5.091620375233843 -0.4734586459187928 0.5210190959855192
3012 2.4079610908952156 -1.1189062967947672 8.20129506836192
3017 -1.4117426068429502 5.9769814109979125 -7.854214757766623
2694 -3.895586840363697 8.640515193703225 -2.744470211418194
2913 -3.526863706099077 2.4595650033827083 3.715064084007654
3493 4.051845423666057 -1.7422474058458857 1.3860868740493915
3235 -1.0706893992320776 -6.029104442712306 -5.044353618946938
3240 0.8037835870305257 -0.6389611471181538 2.3338573098584625
3267 -9.25663201032248 -6.609042272817261 6.160663296964881
3490 -2.7224104791107453 -3.942496271829746 2.9727574379127244
3525 -3.484133035704639 -0.6466588505995479 -0.14140690652209872
3521 -0.6943885579194068 -5.8914364776897905 2.6931151653526855
3489 0.6471569018312092 -1.185484527931108 -4.729802539994021
3236 -2.182416714492642 -1.318580806521498 5.7861607161590305
2957 -1.8745991093142818 -8.008581110963691 -3.29838057509469
3271 1.3760285462493695 11.617413621759317 5.935291231754522
3494 -5.016187518174508 -3.7756622617064868 -3.03057674149635
3492 -3.6839195509270097 1.5169140163603565 0.6767572355069988
3242 -0.9274794143154443 2.276396302053666 -1.7470475934965206
3239 8.885115758054484 -0.0725953943727594 -2.352840864963451
2989 3.9718340929152185 1.3867206118274944 3.4966725376758463
3270 -6.886048103091171 -3.194054762023964 -0.5453797986629988
3245 -3.5404969620493847 0.2840435290991687 3.4580949395302385
3497 3.9346955278681928 -1.5873655678821945 4.073742296363859
3243 -2.1635045488710176 10.464934991068446 -5.676280630656331
3244 8.19116923952225 7.104889124913051 1.2215946510568587
3275 -1.2158494427313913 -1.011106327684915 4.923756456150689
3498 0.40999017944098803 -2.3452754312999944 -7.233025527567621
3529 -2.562111283969567 1.8119276364962862 5.570169654253679
3248 -3.0304782793744596 7.82346041172631 1.11516455942746
3533 -2.6173080425520525 3.8111409731360473 2.181659236496446
3501 -0.24057473212985783 -0.2347556950253067 2.5947982234746414
2477 -0.14537457925226735 -4.054055171447571 -2.1570409008789704
2512 -6.34360589990813 0.27114374973022437 5.441200011084643
3056 2.6577882313157204 -2.2196497865230316 -9.490335014391443
2997 3.0402410336745174 0.23053831087056859 3.2077471747090778
3286 6.525060108751786 -0.08921119869768251 -2.293433097193411
3247 1.1366866100218793 -0.1258825898816946 4.5904500482552635
3252 5.528291057040712 1.3955799788062662 7.064893336147108
3279 3.226898765046235 2.6335417482661616 3.0033719178770864
3502 3.135280181711761 -7.7127021687583115 -0.6155040616372833
3505 -2.4937202203090907 -0.38212842676811487 -5.468516596335135
3537 3.807988330346224 -1.3074529018998922 -1.0395550881135047
3283 0.6896641950507278 -5.532343456936299 -0.8175868438438808
3506 0.19265676368124823 5.021878392088981 -3.055279462550731
3251 -5.812069651800731 -10.539122528730182 -0.9726519894017038
3535 -3.970918926794443 7.854790324803932 1.524013264036407
3503 -1.834322388069591 1.6459412975193517 -1.7785681871910402
2968 6.3525807287896 6.588995657835878 1.8978011619024449
3028 -2.7767443399564873 -0.4808795909350266 -5.458390585306092
3057 0.6670109688921068 -0.9760883378513486 -2.869791211700162
3255 7.472255503369201 5.093678993088315 -7.5839248664899594
3256 6.790991693223143 -4.382220073702465 8.177055329390743
3260 -1.7723133156908553 -3.9687441308890454 1.5982662796482876
3287 -0.12500330398440823 4.125183306535625 -1.8321573407500416
3509 -8.647008569761441 3.306754380486272 -1.4941851401696835
3510 1.6291851350882 1.6373998852138958 -6.806396101724673
3513 1.2211406302047139 -0.6836672211115526 -3.5255973333297828
3541 0.23837898487171819 0.30638025396007196 2.7362905949752263
3545 1.8219465617196728 -0.28143357985339446 -2.5147725120443405
3007 2.4342926136430116 -2.6685769370091452 -1.9937518777900514
3262 -2.8951772824258755 4.620836753002966 -4.371491599731334
3293 -0.0822817091661158 -1.500298884262693 5.075051615268585
3517 -1.0120426768033661 -1.8374720592338998 1.3206951823080149
3259 0.028284357786849894 -1.6251408639929796 4.8924887350706845
3263 -2.8291407517080502 -3.508409539397626 3.1090245467993203
3264 -3.1296630918643054 3.0534564435542357 6.880644649012899
3291 10.326144050079247 -3.3074183172384872 -6.575018630968976
3295 -2.8247420120042843 -0.23436552884099304 -9.851993236145816
3514 0.8423894406231628 -1.7255170975574698 -4.270618500541284
3518 0.8770345406270232 -0.7121730942432916 -0.6418231035791874
3549 9.227931676460136 1.8542689200697666 1.846172729334133
3551 -4.480401340217234 1.3222635119049702 3.1998073740329867
3515 -0.054470867243267364 2.54971864972151 -1.8155674283493424
3047 3.2673242353872474 -6.152525956019746 -7.936378955010447
3298 4.855251069163075 -4.540173653544168 -1.1409805564655129
3268 0.6698818851520784 -2.733703748594493 -11.377580993084045
3272 -9.470140637513277 -4.19583851641203 1.5540899163470006
3522 -0.6464732612347307 -5.879378093751517 -4.6324385403341255
3299 0.006392732949641673 1.3618395398126524 0.4396700375195002
3304 -3.588275271470645 -4.054441088466835 -2.067275606537291
3554 -2.0809035599107846 6.632322582495477 8.431566175795297
3557 -1.9587522769856804 -2.7492108258958465 -2.4311253351899653
3553 1.2519486558236457 2.4791786417355217 0.7753776461381114
3300 5.472716854107911 6.319762422248431 0.5782987150169004
3063 3.4345192518488905 2.157919908396954 -8.70503263222409
3560 -8.20361182091979 -0.9406569470939004 -0.8633925806570342
3528 -2.406701531264037 5.905537191680609 -7.574218202883445
3524 -3.149313835159492 2.8563661426468077 1.7156064203161447
3556 2.836241193060134 2.703439237630299 5.541748708570003
3050 -3.036694311081437 -0.7127492657761703 5.602185223050445
3526 -5.662038691471449 -1.933221770449603 3.7910428041010142
3052 0.9894522477704679 8.035521133140817 6.92397012585616
3303 1.791490242893761 5.305865340426945 3.930441027739052
2763 -4.49563145897212 -7.2823309870824176 -6.66908752222717
3558 2.204366932525576 -0.5209859472860795 0.1966462821676994
3053 0.013699652564268167 14.022504546820773 0.9797064756614611
3530 6.2375619028534635 3.4263328054522777 -6.402521351097087
3276 -0.1610448566204594 2.1455824341403553 0.5214361459339644
3307 2.8239456029298005 -0.7916685022869661 -1.6865461653491114
3308 1.5619301418979838 -1.7542231183151162 -6.7559901446041275
3561 -5.260226909854766 -6.136806094430684 3.9116660045065674
3562 0.11396330609173914 0.45943956074663955 1.8009497055696433
3280 1.5350003708910749 1.1092200609776885 2.202920175440843
3312 0.6014165556191731 0.69779183926677 -2.074549814261769
3565 5.770429354292263 2.618743865598578 -3.171286310073686
3559 3.3956929850257436 12.761589800044423 1.3467339264979674
3114 -6.396377179651033 -2.078143965231615 1.789755502605261
2806 -3.858263066212319 1.5738972927343224 1.092944338550667
3090 -1.0156409802026203 -6.504487228547404 -4.071577798753522
3068 -3.1442019625967887 1.4597783076268442 5.412013972243354
2829 -3.141146318715024 -1.079350910771537 3.0174878933481732
3534 6.512418088460686 4.627021513372381 8.330566166187623
3284 4.217832314765236 -0.03379908466139788 1.8507610780795203
3311 -3.332103521904254 7.530943078584101 4.565274218904916
3316 -2.617377583413345 0.9503341218788321 -0.17538966826471308
3566 -4.493285898878861 -3.7116396067334305 3.397647488037671
3569 3.0948782285940832 10.082561713759246 -1.086988060381744
3570 -10.56093882696329 0.6806096752521218 -9.490167161763967
3315 -2.5088300702144837 2.666526088090946 -7.936848367413189
3538 -1.6645286063068037 2.806895672942353 4.09227597527988
3540 -5.866072530104581 -5.133105440550262 0.23036433493628328
3058 -5.026097749415155 1.0958386251375392 -0.31270268509174537
3313 0.39369680040173033 -0.9476460898154258 -7.7903102191709985
3290 -5.333192200297398 0.6219249920976352 7.274088771875926
3288 4.610585548425752 0.18375305830441974 5.185129689785886
3542 -3.5986602012767364 -0.4174857877547013 1.6462756359055446
3319 -1.6571805700499118 -7.655519847643059 -4.038987115813681
3320 -2.47673656654624 -7.533399964997918 -0.7512663423760527
3324 -0.4260716002655729 -0.1687918404890691 0.11799147728929626
3573 -4.538264185863632 1.0795259979202025 1.9436578874531845
3574 1.6199427076827435 4.323970584697879 0.145804618759784
3577 -0.398747080464227 -3.720373471548134 -9.983033091196756
3292 7.282834109357396 1.639546325777859 -0.19871385624445753
3576 4.296548548715373 2.346269226711874 -0.6374691692485474
3226 -0.19576159617252384 4.547712521780955 0.803974901298888
3322 4.365526362895004 -2.588196317724071 -1.5498956708942098
3325 -6.923434844569628 7.238778008957006 3.839804518725742
2843 3.103266204414924 0.31030332047531606 -0.36381248666295535
3065 1.183047708675211 -1.6079430539062443 -1.8819800573116716
3546 -9.420389206720333 -0.5077231306545246 4.321193926621556
3550 -4.08286300093116 -10.707755298245749 12.11332518434284
3296 -1.8799671680924464 3.4269449079665852 5.03733352052382
3323 -7.383390794468969 -5.428868367344497 3.4420970152748347
3327 6.498499054587389 -3.282470939265786 2.4007666407138877
3328 -0.4731329134509344 -0.18663723979244837 -4.870082868149996
3578 0.054525897712134314 -0.7555035580970378 1.9778337700430506
3581 -2.667049440585401 0.6586222055745646 3.754889393326815
3582 -6.073406387091968 -5.597416587585913 1.4042568191448093
3331 2.3030499965959303 3.4147113292816598 10.854473271556165
3332 -2.15784349171768 -2.1245015541408825 0.2410898142376524
3363 6.214652310869538 -1.6433486699428022 -8.634355341014672
3586 0.4853053786690691 -6.1305240318835565 3.0287976767543174
3592 1.3447053284678894 1.1433248988696398 0.011693458007387525
3619 -5.036605566634369 -2.1017944463111715 0.9370537353261676
3621 1.274269031628121 -1.0623068156688955 -1.1209652690567435
3588 3.287609747167809 -1.375617088889168 9.938886810702158
3587 -6.123737291563285 -0.0515382418508538 2.9566101069403645
3617 -0.6785234600731044 -10.007774048422641 4.953874180072146
3589 -2.3349314499922857 -5.786923414497021 5.020885535593591
3842 -3.059691440305372 3.49673779334324 -4.956053627420241
3585 5.045945871038894 1.1146896746851975 -2.97346250214821
3877 -4.5973832834820785 -0.042464519319532365 3.0851500870424586
3335 5.902833663058741 -2.284099157352941 -4.861402916886738
3841 4.671215491833949 -4.566100264748913 0.2862930652926593
3371 4.107104352173554 -0.9989289676006246 -0.8162605013326203
3340 -4.5689392561377495 4.450753486968757 -2.4604869715875592
3590 3.763652976014633 2.66703285183632 2.2258982702945254
3339 -7.760090761543586 3.4082327058758013 -2.686546229469596
3367 -7.7704028066735615 4.0341500742011895 3.9008488967352988
3623 7.090501904841568 3.232509312544436 -6.437597996796154
3591 1.2584704833086726 1.7289544076852421 -3.4331039289025607
3594 9.398026885405967 -2.707274947843103 -5.426692152032768
3596 3.6975732624179716 -0.4064493783574521 -3.070620670087963
3625 0.5012626315410084 -5.902381366178005 -0.4432537533136076
3627 -6.266972192446435 -4.758864162144429 4.675740095191727
3628 8.452638046616125 -1.257676468598054 0.46775479736206743
3600 -4.474402002977667 2.6744577885385854 -1.8216100248303482
3593 4.3068301994866545 2.332411295795052 -14.87364333063653
3595 -3.1009096315269327 -4.080514909726295 -3.059012990586803
3850 -1.5485746659817858 1.39158078712884 -4.477324234164401
3853 -1.956089710889961 1.774398443077935 -1.1705920113964363
3849 2.6832182601454977 4.721815435267989 -3.977454611031447
3885 3.2511797879662003 -5.494214224424782 -6.674556747040829
3878 -2.0473548514567135 4.060400507143654 6.496892636162641
3344 0.35631261041844386 -0.41269824553093226 1.2370490756471626
3375 -1.311226570234341 0.7918789702581567 -3.549112151260097
3597 -4.914616806818463 12.242725865151307 5.362825450391265
3629 -1.6280668015397335 6.213141996306236 1.2691017432344385
3379 1.7353785121044198 4.449874784181113 0.09368531617477127
3598 1.4079201605439713 -0.40188798188505787 -1.8363873218237585
3604 1.0507920154676897 3.7276403965497824 8.212687593989338
3631 5.902054908565751 1.5273203580027606 -0.05965639022257159
3633 -2.810115535006263 -2.006427414279436 -2.5038775068869246
3635 -1.869304375109292 -2.2890834855916085 6.2875350899580615
3601 4.967379489938479 -5.42333402263153 7.979906284418687
3603 7.481293596703033 -3.790263709930882 -1.2715809132559892
3602 -2.71902019194196 -3.2557778632734404 -2.449908979537924
3599 2.07868326414082 -1.9677132871740117 2.308248911897275
3858 -4.0780237951870895 3.762515185493206 -3.8781928565160255
3636 0.3241066342576383 0.03395250402531797 -1.8351587805358802
3857 -13.639753327866526 6.746741232793417 -10.03170936543015
3352 -0.842621237842245 0.9139825461332196 6.912536895951723
3356 9.126930053039628 1.0921749606688578 -0.13092446049116047
3351 -0.10788925435976997 0.42541636813571193 2.1752432703229467
3383 -1.343106373871294 7.031833870414582 -1.8912823583364493
3606 0.1703278607401751 -2.544783894900793 -2.8508973776764632
3608 1.5743767551983217 -0.9757422923954414 -5.734689424828386
3612 1.9869005343100736 1.0092989701134996 4.689813509772381
3637 -2.8434002588268106 -3.900790037542194 1.7320815748410534
3639 1.4851005411301728 4.050003356027953 4.31735803082344
3641 2.0407732602301776 -4.161023902475994 -0.021918261796871057
3609 -1.3353071897665099 -3.5569832415382603 -3.9031596349267335
3605 -0.9018821457496209 -3.282645274549922 -6.600568754952759
3607 -3.410344917079017 -2.2829780850615586 6.98103757871311
3865 8.585526764977663 -1.6698174210983656 -8.554965897488636
3359 6.259826275731989 1.9100750761676921 -0.9040597686959032
3391 5.559564870170401 1.8406596116883374 1.234432480785017
3355 2.8246036048265855 3.466773357223511 8.729852736969553
3387 -1.4525368590701802 0.8090708717557422 2.0845184137803727
3610 2.093040195932109 -5.315623294887247 -1.5277292080108171
3614 3.900844539214117 -3.565772565942024 -0.7564821520779912
3616 -5.797813290553235 8.45687233147985 -3.920196006236981
3643 5.422764525603297 -8.287450054923363 0.5265077219920535
3645 3.124715623372944 -1.449959824922662 2.7863273092805256
3647 1.4710361441303816 1.2673628396698182 -4.371638313495812
3615 4.173443765403209 -2.2410543364235016 -2.60823599779978
3611 -6.972108474052068 0.035029257361006885 2.275217246978766
3613 0.21635941211301676 1.8464409683414316 -1.150993682290819
3869 -7.135387306860494 -7.496740699324569 -4.933132809461432
3396 0.3135112992201327 -7.405171346826202 -5.237844366393221
3427 1.338153348216086 -5.5366283434904435 -5.126477386990852
3874 1.3971450022450218 3.1254034098926877 0.12578908960001156
3620 8.92790958447968 3.63487280190956 6.788792185413687
3618 6.962684565016016 -0.9809994535757977 7.853854404821248
3624 1.8500555812931294 -3.1121353890576926 -2.8193295083885603
3364 2.0432710534086937 -1.8667617747623078 -5.662287854990166
3395 3.1171012231680395 4.195613850035969 3.0327503433075518
3650 5.365950793933589 6.040506074286113 4.909250468502065
3651 -1.6283399495813877 -3.8772347484132674 1.9962065212977385
3653 1.2526395640496117 6.41496462810758 7.751384855925769
3656 3.4052610929759513 -1.5435969580187519 -6.720400107037692
3652 4.1054262518211875 -4.83203474558407 5.3480575781847755
3649 1.6073122333837901 -6.121835251565168 -1.705318424383839
3685 5.685854214390771 -1.4487160549328548 -6.110060619767238
3681 7.039383167316539 -0.6802211380198765 3.8134319094392057
3683 -5.32544209098002 -1.922229676963244 -2.7972467385994313
3909 5.3817093210869205 -1.1842741260062093 -1.6185904682383034
3905 2.6354970978158945 -2.571377245678511 3.876910597337719
3941 2.263797425093864 5.078776221772464 -8.87501513421025
3906 1.4570421970087408 -1.318082077782445 -3.5237232351020467
3937 -3.79633622783366 -3.922134725892602 -1.7365568032593306
3408 1.906427126643145 3.7020474722074996 -9.72059016716849
3632 -1.6951147750541884 -1.890513874328073 -2.8283137176366844
3399 1.1623554927164284 -0.00411011223113053 0.4552132598940716
3622 -4.36446169924124 -2.7567992000023804 1.5009910993823765
3654 10.078941803648311 0.343726514682822 5.643232814064598
3404 5.542582411338895 -9.825052730446668 5.126832248765682
3626 -7.070790472686676 -4.294144620003223 -0.8400022004062339
3431 0.8154222246662854 0.05755183323041166 -1.4209018431415419
3687 4.80602276163314 3.5360054203369815 -2.7707103634076113
3655 7.197287978899182 -5.78085125128614 -2.589296063885277e-05
3657 -6.974403045197865 -2.2963634335979344 -4.0495262636404155
3658 -4.60713975753508 -3.2693205349005394 -4.246615181186396
3659 -1.7147286701061197 7.293287351898049 3.5798253214502394
3660 -4.209196043328294 -0.7138353007649276 -5.9128839661477866
3661 3.634647428103311 3.159087695153164 0.8042747916247621
3689 3.9594018244350173 -7.158474790184515 -3.689142834754408
3664 9.962550980190683 4.26392835066105 0.5328512580773735
3435 -5.991013709450203 -1.6654016545623183 8.521023274725726
3691 3.548222509140387 4.03518504615391 2.620746767964531
3693 8.76967988293135 -6.161017750594935 4.350810509423753
3412 3.9897185696713904 -3.3656944122250354 -1.3387400779091105
3380 -5.285010888192568 -7.0848748711457015 -0.25318627572026053
3407 -3.529728026446985 3.4552620593374423 2.6291492545316895
3411 5.547088029389589 -6.1910982213711065 -0.41678015078176045
3886 -9.635442815168538 5.143710607827198 -5.998973983076886
3634 0.1746318348740983 0.21500080152120649 5.850478985778562
3630 -4.454671105212562 3.7376068837476533 0.2745985190075018
3662 -4.375476307231368 -0.9604717753053227 9.461260859488409
3663 -1.7397827975289677 2.3634798396207843 4.100112070483387
3665 3.1318409900628534 5.536295261752856 8.600393855041961
3668 -3.1439622533565 -11.493390283311268 6.234756273496489
3666 3.9448065376326262 -1.6557479706371385 6.487963535670756
3667 -8.379660271307475 -3.5110294788027785 0.2745262164318312
3695 3.7505840296956694 1.238584378147918 3.8276321055453666
3699 0.29049412463271257 7.437301331338886 -3.9724206003616693
3416 -1.6967545507189903 4.821355835802436 -2.199532999551276
3384 0.6273751167329426 -2.3579689700405995 -2.4000499668446422
3638 0.42881542885534796 -0.8505018870195784 1.7629957907496423
3388 5.743873895419117 5.659098562740855 3.9648612448074205
3640 3.0044016339553288 3.85508439240687 -9.11881394122263
3644 2.7301581685272005 -4.376640670853137 0.5494828281870097
3415 1.7353894050974434 -8.051778251728734 -6.762604232519936
3669 2.9554733144929535 -0.46096851647040044 -3.509424004466656
3670 -6.754615793637671 0.27019785051277534 -1.4056311468993377
3671 0.4739748831035752 3.415855838416752 4.561141635968535
3672 -3.52535336732566 3.3617129729924984 -9.827817604982677
3673 4.4168536100282205 -7.52223490827997 7.59603456164958
3676 9.607436707766395 -4.70680173147714 -5.67895257211071
3705 3.4232432150352525 -2.820491962054683 5.889164608807957
3703 -4.353269553163089 -4.615208264780708 0.8648349403101879
3701 -2.561438389332614 -4.067979984312447 -0.5246513558154159
3929 1.7376053532100726 -9.535677955198592 -3.9856096674851873
3646 -0.5730880927245361 -8.014814228313188 -3.442571127195327
3648 -0.3128863227232725 -4.072007876535708 -11.129374945332819
3451 -4.582780442786023 -9.328235897679518 9.383427466553231
3642 -2.9285871133169072 -2.7604297109975064 0.5205560314160413
3674 -11.144056402304189 -1.5820849924426954 2.772012036290195
3675 3.64792431059569 -4.161443358572842 0.8291144582098491
3677 3.189345387867028 -1.4637283602097917 -4.987669639376084
3678 -3.4494692490761767 9.66557606428731 -6.986924212469846
3679 -2.7512416288974944 -8.937576132984168 -1.0203621502964118
3680 0.22431282015191645 1.7911007198116873 5.2026182654676605
3711 -4.89724209982486 -2.5496049938757674 3.5463467867905156
3707 0.6818952527853516 5.245429273506884 -2.1154445264658555
3902 -0.03665817001831019 3.5045141702038243 -5.917443782164693
3930 -3.393373478659437 5.1954481347794115 -5.317443543930422
3934 -0.595541462182996 6.332792910002567 -0.9299100990821593
3965 1.4006596899121708 -5.569173781119717 -3.864197289515273
3432 -3.8210633614724454 0.07875806955302751 0.02787458446708492
3428 -0.20340816871387943 -6.490740299319832 6.098462627790037
3464 6.006612020203234 2.7817401291321517 -1.7558137006484897
3682 4.45821919505897 -1.7144112597385033 -5.631432210029352
3688 -2.0161452252673486 0.049187309783201585 -5.409965345518938
3715 6.165703282876857 -5.532603882406743 8.587871558334381
3717 4.474431303542242 1.2605350270637765 9.762500425551872
3720 5.011027046686786 6.0725521121391886 -2.3247386319044696
3716 2.3242609290706504 -1.821690918424907 2.6241786691469016
3713 3.964990010166616 -1.1286288738086083 2.8814097535485756
3714 2.139219040236957 0.5515764441566985 -1.5743027771083333
3684 1.9145845916867525 -0.635901878079365 0.7898414553633767
3969 2.9709916527901687 3.1993851211925803 -2.542766631619619
3719 2.743393277566412 1.6803705473386468 4.323542942692917
3970 4.192135433556462 -0.7513235310832285 3.3695706338655667
3472 -6.355755278024898 3.6354627923374965 -2.7477554500186834
3440 -3.841797432446101 -2.710131724155431 -0.17476991617744844
3686 -0.950840663205857 1.6035838907185356 -1.935445882669389
3467 -6.2485882138239415 1.301406685000048 9.915720921219517
3463 5.671615649678952 -3.274359405697524 -0.6815104755415896
3468 -3.9857536905799775 -0.7851611202241763 -5.629741609204838
3718 -3.906827857724166 -3.4373378690807246 0.7902011830914037
3436 0.29336722039280083 -5.282332079732164 0.6756543500662792
3690 -2.3136345502746676 -8.149217359642233 0.17564796326586735
3692 -1.1844995340764786 -0.7391151763999362 0.6828657858478389
3721 2.9687492113931633 2.191640323021536 -1.1818099203336614
3722 0.23111092781483328 -3.4741577704205064 -3.6099736718111193
3723 -1.4913059287826773 -0.4908366135687078 2.4525755480157474
3724 -8.659989825371065 -5.7136208641267725 -4.100504248691914
3696 -1.5996092367360764 1.7285409521217174 4.023761980785204
3725 2.0676233705098706 -2.274842086090231 -5.116475525088417
3728 3.7393590810311954 -0.9039656497404306 -1.4835883733242567
3475 -4.084312854353737 -4.6414828156045616 -9.771277459871413
3476 0.4157026218236508 3.4345459640449287 -1.2077345547846783
3471 6.049427607908537 -0.21991924313543304 -8.308102140423216
3443 -0.6180941363293541 -0.5100909849904849 -3.8336382312527677
3697 0.6518849501451643 0.269081128319446 0.24143023282126208
3444 -0.9235935719756883 10.432982014932279 -2.9826543729693493
3694 -2.8517526983630135 1.74177644147814 -5.909471407548623
3700 1.0107622873096538 4.126264610943308 0.7867930909925208
3726 -9.096749874558123 -5.590317683558016 -0.1757752956955331
3727 3.2404658872706316 4.574715458520761 7.362451017968458
3729 -1.8547965745580097 1.9279353372341201 3.1414893076580395
3732 9.586159323986037 3.447423028648052 -0.9042412989712134
3698 1.5408997670030704 -0.1471140772486687 3.644382945435442
3731 0.0903600233076053 -1.8304992242570612 0.5255152231668414
3730 3.2898038774545855 -7.440065856636068 6.135035961580427
3986 -4.669195465762849 2.472042683680041 8.8948673670594
3985 -5.7281579551452655 5.358586628309876 0.9902770612405098
3452 -2.424644386266324 -1.4809175541013282 -5.506223609998208
3484 -0.7631486917108197 -1.4707159742038063 1.3074064719123675
3702 7.551011177326345 -3.9707698998120016 2.002422789178656
3704 -5.589117765743077 -7.560961120634433 0.3760190944323876
3708 0.9423357610408819 -3.3154827577980117 -2.624960597894101
3733 4.64139939250177 1.1178404778907047 1.425402790657863
3735 -5.194464726272126 -1.7034772188748286 4.965361077226456
3736 0.7877449906380515 4.824085110164309 5.428683800414655
3737 -1.027817022754636 -5.740894432639524 -4.389942927695618
3734 -5.250465676137757 6.448542777809009 -2.361003376785245
3740 0.467012886926363 -1.9957106935353675 -0.2912174203401451
3993 -6.499346349144469 1.910382136177637 4.278227488607885
3990 -2.626264338201934 -6.120098350550498 -6.225769220025301
3488 -0.09809758044418446 -1.103843225818847 5.25219690277491
3455 -3.0976313843340835 8.62270771383928 1.684765501676792
3709 -2.773047633272992 -5.849190948781385 -4.36184144377172
3706 -2.3348133368785713 -1.116731746287721 2.3035127496446113
3710 5.187291815162117 -3.6900818518061542 -9.780294900317584
3712 -1.5177337889376097 -1.6903983958002982 1.9729872033058693
3738 7.14704424714282 2.712825231837253 -4.393769002599388
3739 -2.391731375191385 2.7984865139644417 4.248413977795556
3741 -4.782991879358985 -0.7756235458789431 4.9424815768577135
3742 0.5799603691428807 -3.7069979237498636 0.5542376906454861
3743 0.9160239995880207 -4.425721758180001 0.3946929956173733
3744 -5.161600630160264 1.8054565759005257 -5.20944961778709
3997 -1.3542118327153816 7.044985138079232 -3.4459013817144037
3998 0.1630379588915228 4.733314937502569 6.064545177290428
3962 5.123948802217313 6.859908385060232 -7.614511287464348
3523 -1.9900863046659247 3.961658223911388 2.013872558601596
3496 0.06875076198076713 7.479249231807391 -0.438128482424798
3491 1.8999948816153516 10.289867243743426 1.8677936251940912
3746 1.9151357918823708 3.5619136029382417 -6.806844726182928
3747 -0.5802397560506761 -4.947587500524996 -2.4654155849943478
3749 -11.284521510369725 3.161510867372262 -0.05361417415177873
3752 -6.771673171026823 -8.584241509622077 -2.873372959310736
3779 -0.8691506139781576 -9.618518878728214 8.26072447371513
3781 -3.989111259763115 0.006220175271025419 0.2009803407282005
3745 2.949259455900195 -0.6797568854708653 -0.12168079690670346
3777 0.8938559927506223 3.180990356014133 12.308815336910321
3748 2.877917683846432 6.5445974321213125 -5.169245329501584
3527 2.6101432931764963 -2.038194543915007 1.7427425891196677
3495 4.779007938861305 0.3535674615554525 4.120967823788844
3783 4.040857735605486 2.1267221884787206 -5.120654249304101
3751 6.527182124504302 6.103663795784536 -6.3154058606443915
4002 -2.3571297081073586 4.7623179850690525 0.11589837875184186
4001 1.5799572604940382 0.4939727143314452 6.024042723509999
3499 1.4257507715356943 -0.5838257270945111 6.642425784327555
3500 -0.8751199825644124 -3.6652448898134624 0.27930700763135463
3750 -1.6992523592859488 -2.6985270995890094 5.403930978825918
3531 0.5205829191395266 2.316823464139076 2.052701244552318
3753 4.625128932926213 -2.3544851469933934 -7.389507064262605
3754 -7.389524340139728 -4.929326286885404 6.814390987856311
3755 0.5486849061739925 -2.738297872727114 0.17546630983562994
3756 10.276049206216285 -1.6715668697892774 -2.4257034672403948
3785 -1.3429897481761972 -8.74184161989023 4.380428530311456
3787 -3.7559952921508106 2.349878364233477 -0.8388244010260737
3757 4.7691312883127885 -4.359752048657086 -1.2555700742145504
3789 2.595725273311428 -3.3611192617671306 2.309372282093529
3760 0.2171590105616613 -1.006083254914887 -8.097435515152009
3539 -5.081870889751645 -4.100850962799576 -7.620695593311584
3507 -2.857304767979356 -2.4896284049489954 1.3460126828040513
3504 -4.003722287360786 -4.062614581695621 6.67457321481438
3508 -3.435291093206252 -0.21903350027022633 3.9990516324396483
3758 -8.447501381716405 -6.078186553257369 12.632554909997094
3759 0.2797591273608765 -1.6958633923766226 -4.435957959277158
3761 -5.858789522909485 -0.13478143358692196 2.372157606604969
3764 -1.025896567874023 -2.552800709970378 1.763344671647888
3791 1.4688807326284763 -0.4423459908102263 2.872309400236433
3793 -1.3376543424707639 -7.516946440955425 -1.0407040066886961
3762 3.5937240977483387 -3.6047685913505005 4.148410782187159
3763 6.450220953227526 2.425102354615153 -4.696840674082743
3795 -1.8241421546165586 -1.5351241655384231 -3.5854021481565628
4018 -7.016680210430702 3.588417439656657 1.6434936854925388
4049 4.282045742224108 5.976097375392101 1.606432542261723
4017 -2.8600344862575664 2.466068270441146 -0.4786706263945566
3512 4.128282608322727 -0.18222055204842158 4.3564847584112885
3543 5.987872429629807 2.4457580802164656 0.5715649316731919
3516 5.297262064900835 -0.8749448821951042 -3.768252927708224
3511 5.281003163296396 1.6676643850679218 -0.0706356481045737
3765 -2.1376113530416196 -1.0441658372223785 -6.4855609382774615
3766 -1.4354603753872734 6.511283063594784 -1.862091147222673
3767 3.377458571582722 3.063517064587686 1.1180702165447072
3768 -3.602605201772799 0.7478037942747342 -0.2461350504876224
3769 14.321924855919903 -3.2607767202000453 -4.873457092955305
3772 1.2704803278753476 1.659341121532713 -1.7498086297576791
3797 -5.470619087384607 8.198497062738024 1.3441016390308558
3799 -0.08596954007411828 0.1205857777978488 0.5218642266251583
3801 -2.9761683044302605 2.175051704279235 6.979945649640847
4057 -1.1719294686105075 -4.373767419634081 -10.439791998314787
4021 3.6077819031766785 0.20248753232780603 9.232128496267457
3520 -4.647016352374103 -4.208983936117827 -2.108199817022693
3519 7.39353522887869 -8.000436964377355 3.6803426008893223
3547 5.699143424679447 0.6346730498480687 4.639553084171703
3775 3.225702406650797 4.455652891939542 2.7719570980738824
3771 6.779122675660925 -5.2782620241098614 1.2441419861230976
3770 -4.103725970913982 -5.532954723018701 2.4065512671805567
3773 -4.428027529102499 -0.7316555866245799 -0.5444426884726804
3774 -1.716865822653764 -0.13485216222316374 2.340986777261506
3776 4.9466382356450165 -6.429119385537863 2.688231029347463
3803 2.3191057259990635 -6.38215293925048 -7.415863636386328
3805 -7.152717924492179 -0.2509005904710173 1.3798430112677438
3807 2.079477387380228 -1.5889453469742068 -10.795574458961683
4026 0.8924581186119009 -7.264406478303596 1.2299452834637388
4029 0.018568967663549756 -2.7857970040423226 -1.6600857393682955
4030 2.277788029092969 -1.3139075946311065 0.661006284586967
3555 -5.099746474930507 1.1813779289172173 -1.6866271453444863
3784 0.2846757736799999 -4.969101480116717 3.5629727288963005
3780 2.9973338176737574 -10.383038337037643 -5.20787205017837
3778 -0.947027507954354 4.162715620018695 14.677340037931511
3810 -2.288217540893367 -4.290467466490874 -7.460415555937891
3811 2.58636931295111 -2.444789434544449 -4.078416443690145
3813 2.2963351529599865 2.8436861973582968 9.31855298626312
3816 2.671004500035588 -1.5970120085696147 -0.5134464069713209
3812 -2.039972299438993 -1.90266756740288 -3.7673862944503442
3814 -4.653506900171884 -1.906317372551995 -0.5940405738049374
3815 -2.5457144304493653 6.989274487074377 1.5800410073739666
3809 4.229963964873683 -1.084281385940036 -2.0417621070348804
3563 1.1281694178120618 5.6913839219683915 -6.206193186078893
3568 4.912715921057146 -0.1097592182702891 -3.504510874239375
3564 -2.710494923921098 4.688911098920298 3.8021466241638553
3532 7.287610778120327 -9.058737131784385 -0.4602184324736084
3782 -2.461064485370079 -2.687129051222483 6.776515207136919
3786 -4.87826189078571 -5.351571393435464 -2.8232345848750184
3788 -8.444002655847273 -5.933659787144491 -1.7581526993682361
3817 5.541496218463901 -1.9622247453927093 5.117755948347253
3818 5.651107998915695 -4.293734126599473 -1.6623806398135492
3819 2.139540080941882 7.376498510475148 5.245901040104561
3820 0.9669027524857341 -5.4270743791492855 -7.057607575006015
3821 0.514180587551639 0.2484708701400536 6.810258854102544
3792 0.7309253799008496 -0.3805960503826283 5.765260254599847
4074 3.7856537449740433 -4.850626825697861 2.1167433222711045
3824 -1.9354058047745952 3.847077889709448 1.6125248740276636
3536 3.538184203715735 -2.8601408130321815 -0.10640422832114346
4042 -1.7043178001958124 -4.613637904705704 -1.2757720805622497
3572 0.027181685601664354 -1.2899287897450369 5.0348830597164955
3571 2.961449828003552 -3.0633183288016257 2.902079735971681
3567 -4.730883409334044 -13.51851934067747 -3.687002319945706
3790 4.586284556623114 0.46794294927052554 -7.874914445482434
3796 -6.343518341957489 0.795935932930141 -4.385444903180179
3822 3.448353711389561 0.11223991313152541 1.4753362940160701
3823 -0.5329995099280511 6.2986162248838715 -9.042444410934348
3825 -3.1414690585924543 -4.1130917273418195 2.191743414273272
3828 -10.872937353539482 0.6620371838420229 -4.279953846868414
3827 1.0474236324864876 -2.8436976784884305 0.2997806703333327
3826 -4.79034056248223 0.8550618077992357 10.06540020510498
3794 -9.020399236673617 -4.470477323635369 -2.311067096873717
4050 1.6462802921497668 2.3641746712343954 -2.8270414225550997
4081 3.3310025968070165 1.8473583182118827 -4.228816024404743
3580 -6.5289556978733 5.4227677366168 0.08835562014903012
3575 0.971106839388411 -3.5294527163758707 4.414420269742505
3548 -0.687800634530454 -1.7493812382336968 -0.018615638846753914
3544 2.01689079061335 -1.0290817898971072 3.5546967701169128
3804 5.313069552164254 -3.7900103271370127 0.05206676598964004
3800 4.038864537365526 1.3681391398023608 -7.958607390633024
3798 0.7081475457255081 -3.6910886051992002 -1.424225976848115
3829 -2.018656441891312 -0.2988217276080373 1.7177589160595532
3830 -4.162733391971394 -2.4579633094849966 -0.8564815332242699
3831 2.8777304579413667 -0.19762985997336488 -7.803224442511749
3832 2.5060932137199288 1.0662276375273783 5.546880493439025
3833 0.8525901503535427 0.4302401326943515 -0.6137933366134847
3836 3.82536371632123 -2.7164484244164186 10.948825145555547
4085 -2.4055062300481294 -4.714681666630651 1.780528691780749
4089 0.8749247607609341 -4.12814510469619 -3.5987854110091204
4054 2.7544413467014066 3.368484074914915 10.268293529313324
3579 0.0006592666404565684 -4.1934213471830395 2.113065216113112
3584 0.08928431595130872 -3.238843378085722 -2.8163114094268953
3583 7.588816180846589 -1.9090420610271321 1.903081778720517
3552 -8.479956113369266 -1.4148535705658023 -10.954975802512193
3808 6.987108831174622 6.580326095410554 5.713105673034162
3806 -0.15149241571027 -5.798975520673193 -1.9585878732931354
3802 -3.069401723509641 -1.8154569344256035 -2.822132713267592
3834 5.48546544016561 5.420096978256634 4.694582370941143
3835 3.634431151329057 0.6462396723014178 -1.866816854902518
3837 -5.615521204229817 -7.839183504960412 -5.636141946787342
3838 -0.5802004367704631 -0.024348401071731265 -4.645741940225975
3839 -3.754207233435248 -1.720694898404257 -0.2506224363019198
3840 4.6433328425598495 1.9346665192085206 8.396587753803407
4090 1.7077096774389122 2.3543930069443078 -3.649296605513249
4093 3.949568008359369 -4.212329499766284 1.1358136826900318
3873 -3.9889087445850726 -3.8799697776263584 -0.8319160684959372
3845 10.861368248775797 -4.283089133933053 1.617597171522518
3848 6.618712156148419 1.8492052999560438 2.1504397094491376
3875 6.274382675707872 3.9987779438555675 6.139921853575418
4098 5.597259489473171 -1.8175224101509377 0.49657451193077823
4133 -3.7227608965490795 5.038344840171047 -3.468273507615457
3844 4.830870045753982 -1.2572321019573678 -6.148162959837432
4129 4.206996494420222 5.796213483534596 2.304210256133786
4097 8.87161717339278 0.15250078566867403 0.8907716471339621
4101 1.9377035697410525 -2.0432253372125486 2.513468752760894
3843 -4.681982670809964 -2.00596193547565 -2.5164601915999767
4099 -0.32546419017431183 0.7490412685323956 -0.25897541414334196
4100 2.080714235682679 7.084241280495967 -4.466305966241364
4131 -0.5197638859391223 -7.759284462879357 -4.301344487956225
4102 1.8369281972813736 -0.8949257745041106 -0.30081571088317505
3879 4.930499958462084 -3.3686786390928813 2.424424490808917
3846 -3.301833686732918 10.290895319574185 -5.791065790478773
3881 -5.327454407708794 -1.9904912470708054 -0.10413296327857738
3852 3.939896901214861 -6.555133448406461 -2.4188821483916643
3883 -1.752980899007812 6.091230568559851 2.9724208323216144
4106 9.349301515070715 -2.9215431600203887 -5.23587191040498
4137 6.997359145076681 2.4735421397748425 -1.9450761816668847
3851 -3.9519538503095646 -3.400375714834858 -1.2445463474970435
4141 3.8024518449832407 -0.9641872103029971 7.921377045845933
4109 2.878508156055742 1.7617742994523657 2.9033128041978045
3847 -2.041564079446376 -1.9510194664664624 1.6281425726927659
4108 -3.4367900265803075 1.684124305894517 1.6840343358915848
3856 -6.346583840242533 -4.865057266302222 -3.1522067591756335
4105 -0.2691417313485643 -0.36685136156531023 5.178764913579012
4139 1.609828591971059 -2.76780261647594 -2.824101704805358
3888 1.797834628111811 3.76051819934265 -2.4346660025835622
4112 -4.15560833120891 -5.962853110532748 0.9911900186469743
4107 1.1270537741021447 -2.371233056412152 -5.119397971514498
3854 -2.9371448968308664 -7.965260236821503 -10.147927478021511
3889 2.0526314982427154 1.825743678682667 -3.9214799554922255
3860 0.8571137364350122 -8.884614027652527 1.3941657181707836
3887 -2.6938836749954262 2.0241589623590084 -4.735494189424272
4110 1.8013349594182972 9.086855278411301 4.687970300530718
4145 3.2268514339688883 0.29858209748411374 6.110803119584988
3891 -2.8116793454443534 10.439463316602215 -6.82658027406912
4114 7.798959178742975 2.973188496395054 5.032180619153881
4113 3.7168958677603086 3.7559491524509085 -15.85591085440299
3859 3.595716399638337 6.284764248826989 -6.535309629562016
3855 -10.458102138006137 7.417784064558029 5.415629913146081
3861 -4.821061614384341 -7.396863215190737 -1.2273376803342673
3893 1.4340342518505247 -4.440337847429145 2.4051316327850523
3897 8.267141175793201 2.564679948142746 -0.8149740903016442
3862 -2.433563542640701 2.1950387735244306 0.7623234641413595
3864 -3.5922941419484675 6.590887374239952 -3.182606695023489
3868 0.835010776795732 -1.7115945545746165 -1.0172351285765129
3895 -1.254810930666758 1.3865365457507552 8.684478949237711
4118 -0.7013775226325348 0.48930516572857774 0.45716251512760864
4149 -2.2511936394208685 -0.4330317208012338 5.348390513977093
4153 3.4223365838237787 -9.561080852453852 -1.0298346230649569
4117 1.4836779565344222 -6.308515863051676 -7.276793346361343
3863 1.2599660692580998 -2.6906853270729876 -6.197772926392296
4121 4.671672210347855 -4.400484212741747 5.642404268347036
4119 2.859149957872854 -5.091784967159419 2.204079525882458
4151 -15.093927720634747 -1.1097233750863549 -1.1984860421736288
3866 5.841869950778799 -2.585681963842835 0.4266560713508911
3870 -2.9930688643816787 4.272201438058818 -2.1481294293429958
3901 5.811083910168233 5.749124036186581 1.4562833997728095
3872 -6.521347899883147 2.424041945291203 1.6314577048836991
3899 -7.35914804730517 6.488151629665035 -1.1692050739535826
3903 9.257176058582816 4.797519364503848 2.3342619250411967
4122 9.517279700297681 -0.08344930750939292 -2.0055610341842116
4126 2.4120606860578073 -3.2095654028004548 1.5941504139081337
4157 3.007994622361418 -4.8366424057473685 3.8469584921806024
3871 -6.885367736261005 0.414327036240224 -3.1776430079882623
4125 3.2646803418541013 2.242590477139723 -2.01436443395885
3867 -5.881422168796565 -2.771922952693904 1.9599116432006978
3898 0.3732275432592849 0.21291047576868097 -5.965718342526522
4160 5.7400358554777835 -2.001885231403049 1.5537792384808757
4154 1.5764845304634925 5.062679680955998 -2.3187836746816917
3904 1.0780987506523374 3.760955666846066 0.9815820747744651
4159 -1.7179093092127706 3.5581970794647426 -1.399215854472378
4130 -1.0258559787602968 3.654544850792297 1.2457596030935718
3876 6.440910714622344 -1.1074880031729772 -4.86207527698309
3880 2.3014982446237715 5.594433787561526 1.536017502318607
3907 -0.3095169167817538 2.013347471517528 1.457416491855609
3912 -9.163691184892883 -1.3793232107291495 -1.3893650678385565
4162 6.70694857913782 2.4844111926524928 -4.065973635758445
4165 11.753977120765002 -6.922127876783639 3.928454963030691
4161 -0.9970865513092436 2.080494393101778 -0.2915002416642537
3939 -12.401038210217846 -2.1692052599180065 -2.110511678925471
4197 0.04936909853418118 1.2456070663253114 -3.202214641676189
3908 2.333900994030078 -1.8591621395919793 3.7767117991131927
3911 1.2562887176604618 7.989219346473402 -0.75293818389509
4193 2.524989928151017 -5.870954848579012 0.393512397868096
4168 2.977962592798555 -5.406585271899825 -6.436171758790243
4136 -10.631154869755067 2.304596788187685 -0.637658290761562
4164 -2.2880592013337724 -0.4910639261953328 12.382866292885398
3914 7.012155378158394 -1.524447517833463 2.041213908053273
3949 3.909002724224841 4.140337904209182 0.268405860457554
3882 -0.47100147071897247 -3.7776297427439 -5.153794959383709
4144 2.4117411889666514 5.9054175860577205 2.5944655913507613
3910 -1.945489457445084 -5.746248624033866 -9.00501889161559
3917 -1.7534281152614137 -4.2912510818524705 -10.752892783112427
4134 5.36952329575705 -0.26924243249207913 0.26697059245316035
3884 9.086229079167145 1.5370035222897347 3.911097796223916
4166 -3.587240088514385 -0.6536518862812887 4.477666523170918
3943 -10.25252612583658 -6.207960398434738 -3.31738557592514
3913 -4.175587824659004 -1.491891980648771 1.8514285799100405
4138 -2.247542726714741 -1.087650627936474 -4.952278411594528
3915 3.4986892394207825 -8.442014216825946 -7.205787753106055
3916 0.3666891889084713 2.458479030308854 3.0361642001530655
4169 -2.333096381556533 3.895301066693661 -6.876602242155752
4170 7.565288146186784 -2.6174077134961813 -5.053038126663968
3947 -9.60005020019224 2.7396221475453637 -0.6678596427142217
4173 1.4536549774907388 -1.1958056574090585 1.5747286033190204
4205 -1.9929746609871204 3.5046630821125033 1.389125520153517
3920 0.3280753285141108 -3.5367710742704266 3.2059827404080687
4199 -0.13428269715010233 -3.864551403657452 -1.9046960271192892
4167 5.485674557596881 1.2498375869562568 -3.08051840578575
3922 3.5649598859480127 -1.9250824620380411 0.973526386508817
3890 -4.363196292597265 5.293308678398731 -1.6517644053095977
4142 -6.435301708142465 1.3819214808380904 -2.2393421828649744
4146 1.2316555226945745 4.8065411139780485 0.08721648472303223
3918 -4.287777556290467 -0.6332508079472003 5.455660125503857
3892 12.437653047478546 -1.8637910174398626 5.141676261252019
3953 3.571339891165981 0.36743720290056114 0.4870488034838316
3921 -3.379351614733609 7.091909639274625 -0.17781006527447413
3919 -1.0068385801102702 1.8110532676938709 2.6400931838007704
3924 0.025929677108045446 1.8993849749521075 8.70441926038117
4174 1.3721854074078603 -3.0431109402409167 2.2926984701708095
4177 4.564106062343965 -1.6765312465785849 -0.8546486357882994
3923 3.422669326927137 9.691929436282164 -2.593332464752958
4178 -5.839605548230646 3.299018087765931 12.353888921394901
3955 -0.32260063665200406 -2.080634923903723 13.476247913001824
4148 -5.152534641180296 -2.3432877090107542 1.9573026192295349
4211 4.121547012303515 -4.530721797565231 -11.94837169486995
4180 3.310756573587263 5.881596261885958 -1.9922129741345687
4175 -5.589876309121078 2.1783293690276486 8.23605160504055
3951 -3.33237551938112 -5.984562140717766 -4.890415646469212
3900 -2.426831673478519 -2.8778222108352853 4.372195221458975
4150 4.869232274866897 4.796252766310995 -3.796375077941003
3894 0.7780702439588723 1.336063582957033 1.0263216123860617
3925 -6.430858729948711 -5.904471040445849 0.28376913278700494
3926 -4.962399453393471 1.7706760395475099 -7.998431212860633
3896 4.893795239819092 -2.039624027061006 2.974595888378884
3961 1.1494846788557234 1.4753705201446459 -3.85360234400769
3927 -10.058876173288844 5.6695321315554175 -4.345339784445264
3928 -5.416503372305156 -2.4519617932760593 1.3697196129990843
3932 2.6568335589999195 0.7557471293915757 -1.3745800455810835
4181 5.371166323343257 9.066497950266056 -0.08879377258872906
4182 0.7071573131269353 4.8106554428246975 0.5437439295521937
4185 -4.784550736814533 9.003801307796902 5.131448675421359
4217 -4.375067301508639 -0.8037639408541469 -0.7435362023742567
4213 5.403784403811248 -5.691801650205162 1.7149164377740098
4184 -9.520493245049968 -4.601799686298342 1.626626465517651
4188 4.380421292128692 2.941767849951993 -1.8260989667773986
4215 -9.7886582745562 -7.029915807245127 5.947653387794259
3957 6.890927264751702 -2.374001819717428 6.883819868865129
3959 -6.734197102084824 1.7417606411136062 2.7004733265519025
4152 -2.542012427797889 -2.8298640893721863 -5.533459125442321
4183 -8.226956991931322 -1.9921149959907105 -2.499826954959524
3933 5.114222103112919 2.9532450506393637 -7.705992589440558
4158 -0.8036810215428224 0.7928228330930178 -0.1202090499292315
3931 -1.0304648780222951 -4.443890214172173 -7.297082597604299
3935 -2.4375931221197775 -3.321213132851886 0.72414332883824
3936 2.9563319513453776 -1.0580146933482677 -5.35021678223009
4186 -3.658487098386518 -7.138536553506482 4.195394042375939
4189 4.949981632821424 8.305651846451378 0.5314416367319974
4190 -0.19999970781721627 -2.917542982020491 4.232479417749464
3963 6.00225941734302 0.2903541273684857 1.047344789019677
4223 2.236260473117241 1.535788714051595 1.7932218747642352
4221 -3.8036554110728553 -2.494930472194566 -1.5301148308510983
3967 -0.33563605669034924 -9.501346906961881 -0.22530441632253728
4191 5.564635442744822 8.32775644724021 -4.953995477012992
3973 1.2273643945431463 4.431749882377042 -1.8030639708401808
3938 -5.134372750194336 1.5706787245741556 -0.876854428213626
3944 -1.8071462329183605 -5.485679219804923 -1.5048809927435924
3971 1.6287441409207157 -3.588246508399438 3.52381983844466
3976 1.6811391868929308 6.986942486648808 -3.597706500573277
4194 -1.6600020915709421 3.519141183771456 1.1507667707524303
4226 0.12993407353324052 5.20640491859951 -13.208152483540983
4229 -3.8483715650624095 -3.048428281515002 1.68413881700845
3972 12.907297143928126 -1.559003534879444 0.6353942168483148
3940 -5.472697213044852 -4.435000051516645 -0.8027777024331247
4225 5.4472708272856325 0.3977367572294065 5.059847609386016
4227 2.867505508025917 -4.479173455329358 0.7021665260962626
3974 -2.905401886352977 -10.91329363362269 1.2409138985429462
3975 -7.01079172629048 -1.0214660747448787 -0.9923226253485886
4232 -1.831393066804909 -0.24507958435135138 0.6610156682074418
3945 -0.3010303875260233 -0.22536928687686963 2.7594193979468695
3946 -2.533172132984586 -4.499437739315684 5.947777304356873
3981 2.5743781741857257 -5.847796258138431 -3.317743044293632
4201 2.075041380136423 3.4384720228486327 -1.0497715131742849
4198 0.19975534431945136 5.078066223001081 -0.673189936227178
4230 -4.416744775792895 -0.1442520168869839 -0.16890624223802012
3978 3.079149358159064 5.869689895935931 5.799860823888687
3942 -10.022102872406851 2.3413217617496924 0.521411633611752
3977 3.046571116987433 -0.924811413327961 -4.222179317760961
3948 11.191941908407204 -5.344777945032072 1.6115147389131417
3979 3.6843238118538384 3.30617656354091 0.37465632241686847
4202 3.1399110260589045 3.366681583447635 -3.4443815603144956
4233 -7.959557430790244 -8.246301644906088 7.492167897535275
4234 -3.3965650463385613 -5.294457906522349 -4.091918533678852
3980 6.143340904349339 -2.1384504637634554 -0.7967974913017402
3984 -1.1683132070264723 3.0372614510787477 2.634106481265146
4204 3.1914714664633865 7.315024416016648 2.776834508577662
4237 4.6900482702870905 4.690799088768998 6.6198030827130845
3950 10.084324909716967 1.9372428342747934 -9.695594767535335
4209 4.107564367007771 -0.3539589635418498 2.781903539066629
3952 6.638104745807015 2.4285492420398014 -7.519334664815674
3954 -7.923630376283311 -0.26001241174789586 7.552736201999123
3982 -0.7031618666866738 -4.304985778445413 -0.12094175026448893
3956 -1.7965929443392974 -0.19156098121310455 9.913538199782275
3983 -1.9943364985212861 4.486287427834431 -6.216651524821736
3988 -7.886631799013434 -5.45791449402276 -10.63341396473617
4206 -6.824231164977234 -3.0051722645357266 6.110442752100242
4238 1.0185000145056242 5.3860612132208665 5.152765945621179
4241 1.1330802544912024 -2.4283694895509655 -6.465262678046239
4242 0.9180457500264088 -6.771642580871154 4.589996835638314
3987 -0.8570503650377798 3.486527296284702 3.1619219244782806
4210 1.6755543786571698 5.39680159079552 -2.8810898464572516
4243 3.939226084720058 -3.9403556372441195 -0.9237187314028835
4212 2.2330508571664667 2.6331221512764604 -4.910394630776141
3989 1.864325476836099 3.1280677540391446 2.013375423875724
3958 0.0903160350376797 4.818210125875115 2.499001762788874
3960 -0.3844243490032511 -1.3085899099496525 -2.900288517879743
3964 -4.847843450469215 5.012900465102514 5.16795347048792
3991 2.2834897321689884 10.331333153424424 8.058927114059058
3992 -1.3161811977925182 -2.3224765078733305 -3.336863153767889
3996 -3.8570025227216145 0.024471835496393875 -8.940466445596815
4214 1.9014834532541727 -1.1773887640830472 -2.2982751633193588
4245 1.173558756035966 -2.9284255574635694 -2.953540641221678
4249 -6.542608469354893 -7.860643959994517 -1.1531597566662053
4216 3.1511976701211073 0.7530749434805835 -0.05283420781825168
4248 -3.0133735348777537 2.851789150822072 -5.9764776317355075
4246 1.2636062104069907 6.560036112849711 -2.7217026258955275
4247 -3.79815978099201 7.573297095662518 3.7095726786249728
3994 3.957105642182503 -9.636169396586908 -5.68143055333233
3966 -3.5910131925478375 -9.35742860268018 -1.133178525934076
3968 6.083751715051726 7.962150711572511 -0.395606024360856
3995 -4.959795254322481 -1.3260843979699308 -4.684830236319491
3999 -2.2059878690480814 0.6594926299318897 -2.962830872218299
4000 1.4329391306718295 5.257060760834925 1.8679617456911912
4218 3.3916441589268604 -2.815797200817626 -5.765172279678444
4222 -0.09273226594731707 -5.528235741887198 0.762187608736189
4250 2.46441185544647 5.0709441385963645 1.5062345674044946
4253 1.3533351134358815 -3.9698978580284807 2.3264289854139517
4254 -3.9961225068687356 -3.6049958381464506 10.909603800242163
4251 0.10241838231415717 -1.0043600050778432 3.6658050089316134
4224 -1.907970213411852 6.060728406488922 3.8990272551339604
4196 -1.3522967846955036 -4.156370575524794 -3.8860239800070704
4219 1.1896091721176703 -7.535355275310769 0.46050520746804624
4033 0.21255933464352003 2.1309009783936963 1.6798336922192976
4037 2.48731962586527 -3.6237981958036207 0.18411167669423223
4005 -5.261053229264695 -2.147858877271186 -1.9676769278506516
4003 2.5672023102496477 3.686660029799309 0.05509657919390345
4008 8.426761736281977 4.916272733270958 1.3124309698376373
4035 2.5755170031361945 1.3831081703511012 3.68335732125146
4258 5.058695275438223 1.8007625226301944 3.3094429813530946
4261 -0.3563678737828728 4.019681525621872 4.091652710809182
4293 -4.124181933636149 -1.6684544246644275 -5.351046728929865
4289 3.75053781333598 5.378406357058507 -4.4921212306583325
4257 -0.03226533704864952 -8.680500273391905 0.3637682509188099
4004 1.452314893252023 3.3161204113950147 6.94395968361076
4259 -6.9591316779498245 3.3575658212063146 5.123847253963512
4007 -2.8094150767488704 -5.711938626066278 -0.13225456531116897
4013 6.409778251574468 -5.210441778476362 2.326649229633793
4009 -3.7965332847974698 1.9882578318015613 -0.595563472465581
4041 7.672119575342492 4.834671011489084 -2.9169072303105876
4039 -1.6617233742732842 -0.6054405999481283 -1.5361738994246823
4006 -3.3581420565709843 -0.33152077836852917 -1.5265075725006716
4010 -3.087106102638121 1.7649085359594194 2.7813072076238563
4262 -2.493441326699733 -1.1435227300204749 0.18987548932268367
4011 3.0263923507005566 -5.042907422003408 -4.7742042556360405
4012 -3.0904020664345406 -1.7171496205225363 3.0988934705086835
4043 3.1588065027734324 0.1533517156624456 3.2178135967160957
4265 -2.053993912674452 1.6888471358004846 3.8936914685978015
4266 2.719725424066496 5.996916659932409 0.36304039562417767
4297 -4.794180234427744 1.7522124689812684 6.349128479354246
4269 3.684977690365291 2.1594270170147603 0.44786289569736853
4301 -4.0265414715853725 2.093705860630583 4.862912368967015
4016 -0.40528586762821733 -0.5256099996134509 -5.27821597024301
4014 10.095649069449799 -0.787185090995441 2.210717709960079
4045 3.6201683121825616 2.113332313821134 -1.0378769791405735
4015 -10.854511816275208 6.140652049300122 5.16036281823668
4020 -3.5056455354506646 -5.392916673430329 10.95571979947233
4047 4.483915237570696 -0.7884293186939697 -1.893354614412808
4270 4.508999522092202 3.581872885103519 0.8102465028966186
4273 -0.2822272903780057 0.23925665267287624 -4.323524489243383
4305 4.718149129477686 -1.6260427336685188 -4.340255676331765
4274 -6.363789331566001 -11.535925986645907 -0.5639503012523724
4019 -4.584530672304969 -2.3097612654988406 -8.406150964804777
4051 4.3334937217009095 6.462176964134256 4.914054296160974
4303 0.13012354301663154 4.9610384420178715 -4.213014498461161
4053 0.9813681369097824 -2.4961639560664426 -3.5964518202071996
4022 1.9982419368734787 3.9484979502170776 -0.20168335349282582
4025 0.9153942826642589 0.6603775898584405 3.445037420707229
4023 0.14433934657290176 3.6864123103211437 7.129141619847382
4024 1.4905002858704928 -4.9554490116863015 0.9485551972439112
4028 3.3288452714135137 -3.6027427090897977 1.971761584483609
4055 9.560659876944998 5.150989608458139 -3.8165066283937024
4277 -1.8544265202448362 -2.947028074873184 -0.20066301150355143
4278 2.5310738054724706 -7.149534666447863 1.0373031129220815
4281 -4.941096840152171 3.5488996588329917 -2.117204308711381
4309 2.640028736488991 -0.8286969562030445 -6.3024211065561
4313 7.2395950720048114 -2.6705978564545174 -6.9773685241995365
4280 0.4277784259936272 -2.0776037486168804 3.5516830068004577
4279 3.3803638159005818 -8.119823538245894 0.2685720721310787
4061 -7.582583258076962 1.464033950222688 0.4001880533168573
4059 -7.729369829817522 2.985344597943568 -3.8785950170647943
4027 -4.5294834984600225 0.1384800263806654 3.341794547772047
4031 11.764194229616633 1.496619603334733 2.8876292864011277
4032 4.7330708088310365 -6.030167229268342 -10.056805567644597
4063 11.5029415953491 5.488540291021973 1.0441420428310522
4282 7.269450782136141 -1.0690092632040535 5.666672975690598
4285 9.101407936080834 -5.80534721948241 -14.238546347309153
4286 8.34517840620099 4.437042838670649 0.23518194831629113
4317 -3.5203462891513726 -4.343413279347374 -1.278016844932886
4288 -3.012110522407995 0.848906266176841 -5.098402730674381
4319 0.9286923821796105 -2.562197693335092 2.722114735453014
4315 2.691633234250225 2.196458344754947 -1.1650559419177413
4066 2.0275689134786696 0.7585700611370356 -0.8725244867569746
4069 -10.551244572579135 -1.5794585925314084 -4.215385041486806
4034 -0.2341492984239928 2.3433897384151092 1.8562131642009734
4065 -0.6238445635461853 -4.577882995963642 -0.9786683943204438
4290 -1.6887765088481055 -3.7615852676469776 -3.6737636863751626
4040 6.43154099199534 4.207862506641317 3.3902329318966804
4036 -1.2243871887604365 -2.336749311050846 -3.6421599039089427
4067 -0.012639180285975576 -3.729206061321399 -2.7767239161733674
4072 4.060967006152903 -1.8678533424742427 2.537083891057907
4322 -0.728664240726304 5.831285839140933 0.8478836499259781
4325 -1.4498928156362796 -2.444628366958887 1.4687373408791344
4068 6.711788611362832 -1.1559599928552087 -0.20878379735773284
4321 -5.132667312002358 -1.5383659641117702 2.556228523703756
4070 7.83490180129577 -2.196881953099308 4.946963735770164
4324 -7.485260384162517 1.019324599316278 4.405561036337291
4038 0.5995922218183338 -2.633828001346516 -1.6054315617157286
4077 0.7318761406753526 -0.06062062233339131 2.1108913422341944
4073 -1.6539048115902941 6.700518167583074 2.134424014995199
4294 4.709530744642834 6.502190969152073 3.5452631402897903
4071 -3.953217954985622 -4.632264449243105 -4.625974541467108
4326 4.5899400582688425 -5.795889517641486 -3.8395058798420227
4298 4.752586462895196 0.2520911927827242 -5.308724951654039
4044 6.2214144354658245 6.442612375051717 6.225202374375826
4075 -0.8631206642902663 7.372221145519513 1.3112133642914063
4076 -0.7800924789135318 5.4679811486603835 1.9636286546898474
4329 -3.3423306511826993 -0.07235036462233961 -1.3434763780414642
4330 -4.4435881573604465 4.950729521051843 8.92438474738298
4048 -4.252307241341228 -3.926743030974001 4.7749302624707655
4080 -6.6213588743082035 2.730714897771027 -5.775479474880881
4333 -2.0420441057374465 -0.8678369890574791 1.3417324492453135
4336 5.03973592163459 -1.9840267731311787 0.7064696134840941
4332 3.1516536171044858 1.4596114073297555 2.573182725337993
4082 0.13602723456689847 -5.263405380299724 4.981751011111991
4078 -2.5289729317011425 7.1097031801786 -2.6069827161535883
4046 -3.713893812465031 0.37889445389613874 -1.576709924016621
4052 8.724154183026958 -2.330793213903918 5.176142842729728
4302 -3.1609900872435084 5.523181474548674 -1.769754969717493
4079 -1.2520896329529119 -2.1980039484242657 1.40525833780339
4084 4.566734976234782 -2.099008780606963 -6.175328482635995
4334 1.8798824727141072 -0.23275005431418802 0.05390026900864123
4337 -3.5204776891762966 0.9992658260374592 0.9707950179813183
4306 -7.4464718575476585 2.2525858815773954 -3.679904106660815
4083 -0.898976783553989 -1.4653120861771571 3.760686862624099
4338 0.612592941143096 8.700734238569261 -3.3320657218269876
4340 -5.123518071316657 -11.703414410255794 1.2655387355248409
4086 5.1855248874859585 -4.146774022510801 -3.013270357565701
4056 -1.319016746537092 -2.295051814472204 -5.580724118850647
4310 0.6631888967601076 7.102460218230422 -9.347708795031842
4060 7.22502188967922 -3.2583978341415727 3.991051756644285
4087 -3.744833010923546 -3.6116007649141526 1.1176828171444517
4088 4.340491255715811 -1.2264272734644246 3.5314872018267978
4092 -3.6918335780535365 1.8240737157343687 2.581507720932335
4341 7.14113436745216 -13.70895340375048 -1.2661227614768373
4342 3.04986981413593 -9.015434196182227 -1.0807975577789637
4345 1.5450370824674644 -2.797387295599507 1.0289434825135964
4316 14.06036871341807 1.540476080914706 9.92682692540913
4094 -1.254225542850123 -1.669812291494284 2.834999280821721
4058 -2.8207827504736955 -0.43371089523669737 -0.44998439646590765
4062 -1.4098704124260244 -3.617278850696384 0.24544811109491504
4064 -0.9193870530638563 -3.397558040335332 3.121109405874534
4314 0.4268158928342895 4.285558122359992 1.4988913512636612
4318 -2.4926899581682185 5.549585897299727 10.34394633425535
4091 3.2969188049492617 -3.022401323809056 5.14911590005921
4095 -2.0866513771210786 5.604941124116948 -0.5003714996104692
4096 2.5391889900879687 1.131747245350694 2.8428100341466984
4346 1.7111071619967404 -0.38555700846916297 -0.48675860016061145
4349 0.12801421816956607 -4.445195259303271 1.5746270697258269
4350 0.6828012915102515 -8.268915956589495 -0.7930158993193763
4320 10.488904134643022 0.09746872720111976 -6.854987743160918
4351 2.6304579302969406 -5.281105859139971 2.9808969462417148
4347 -2.1133355436635193 2.4145778137747125 2.9329638184189704
4104 -1.1707247821849005 -4.201730350041068 -3.408073821866435
4354 7.469432937007984 2.6973401623577797 -0.8851174342066443
4360 2.43533201501869 2.7671465063646012 -7.5189890955288226
4387 -2.8111126956365737 7.465631729312905 0.08812650298234813
4389 -7.30116945281843 -9.078788171201815 3.4000594422266386
4385 -7.701515634489452 1.3760426204412264 -5.887353165863175
4356 -11.24100984513303 -7.424512741555943 3.5159731475477822
4353 7.54440374627865 -1.6282905895542745 -4.503908059742411
4357 -2.7466077053559546 -0.7916033134731965 -5.863144454245554
4388 0.15208390981007922 0.9403754135069974 10.500060526607873
4355 1.049015384062304 -8.494889960405699 -7.251968820843456
4641 3.7760059576904337 -1.898242185320392 -2.0476051360846848
4132 -3.138086811721854 -4.073759253922224 0.6911916475928183
4613 -5.080196722271534 6.616953257989257 3.253129132556842
4103 1.4896134662836786 3.048745121628726 -0.7823205148185908
4135 4.152712152804805 2.0613951603452123 3.463732035552783
4358 -1.026114924195603 -2.2334838925709777 -3.6377878947719786
4391 6.093802901203802 4.758701195516098 1.8002219694356179
4614 6.8821025424040645 1.4284656616515938 3.908181961009392
4359 -3.608905429412068 -0.2576366477836083 4.196368949582676
4362 -4.521227905976582 -0.568800376862428 1.3775209324396522
4364 0.6918770462819787 -1.5970720461055903 1.7170355957799053
4393 -2.5746326515959224 5.214306141741418 -4.389282440480499
4395 5.277519134212076 -1.5063252610731548 -1.607501805967992
4368 2.6041764551517925 4.743489421049938 3.414211382623466
4397 -2.728293020341069 7.590151153049321 -4.359237408457402
4363 -2.1875778855868466 -0.6670011096608827 4.174495935102806
4365 -5.58650898599273 -1.4074687134951078 -2.508180236958873
4649 4.172560821746987 -6.134972124714206 -1.5464887868007575
4361 -4.782242492752788 2.9795524836182365 -4.193232787928823
4618 -5.562719064098289 -0.18303319642095603 -5.376920613428102
4617 -2.099702302162831 4.124043109733436 -7.159332446819113
4143 -2.3494439528832696 3.80501919886799 -3.707017472854719
4116 6.994378563235437 -2.4436044548245945 0.8793543045774858
4147 -7.494670363665325 4.808994881419449 -5.711508534888652
4653 2.7295399402488987 -4.643013097070214 -4.100082848202104
4111 -0.6525863838601633 -2.3784554039092844 3.6942410683526
4115 0.8348969101060111 0.6421843442891201 -1.7560500386976265
4366 -5.06452479843364 1.1510133488862122 -0.9433926036064828
4372 4.199879522029036 6.268433403210753 -4.3996365111845925
4399 -1.6372573575391118 -3.9282647623600804 -10.262689360185902
4401 0.8165130448524331 -4.165470843027676 -0.27950084165386313
4403 3.9894156141388755 2.4339169051469707 -5.0339927939556475
4370 7.398293653408173 2.3949530572085838 2.562794591680757
4369 4.96956934408253 2.49764182636446 -5.393009311310908
4371 2.3252004696617434 8.810585209155082 4.653900315421236
4367 1.4602027282712646 6.086164645447631 2.3454806148385643
4657 -0.37413459819361444 -3.4742289403935827 0.7244672328317071
4404 7.0973482344390995 6.184352339978428 -5.666641897043624
4626 -4.792075070925681 -3.7167364973274144 -5.134491473185686
4124 4.268586673838181 0.18639861198683133 -5.69677753099253
4120 4.469377438417574 5.252537894401324 -3.985633397999664
4374 0.6697810782467801 -2.3717157920019853 12.768959437754717
4376 -5.157467037567574 -1.0880232846777775 1.8522919254740582
4380 0.9662147831498584 -2.253959710784845 3.230650533328594
4405 -8.576809258216649 -2.4587904193502697 -5.321870883550002
4407 8.993045745156326 -5.021424248524816 5.132095700153634
4409 8.511935690904037 -0.7156376077629623 2.9787558629289324
4377 -5.107458600095168 -4.719522745161354 3.7176422060522176
4375 1.4974332734636975 -0.49440860586160257 -8.881857869470531
4373 -2.2071115957559813 -3.1849100239412858 -3.6346031911247105
4408 -1.3985675043943944 2.531922902118773 -4.701723185931242
4123 -8.86753123549749 0.42787884829861544 -4.015570405201193
4155 -8.985458027310273 -3.624140567488694 -1.072316215903481
4128 6.373811291281093 -1.2414755819578267 -1.2909923683769875
4127 -1.5883210612295502 -5.177463950039975 2.739838678957204
4378 3.9160444940482284 -4.446164285343317 -7.578009567345393
4382 -4.091123093649668 -6.5081099291128375 -6.3995727036100805
4384 -4.632539053680211 -1.431026611782937 -2.534223908840062
4411 3.52287922267889 -0.237151218762506 -1.9222809623478627
4413 -4.341386648904186 1.012949566981852 -5.0559938280750165
4415 -2.842082168998523 2.0306700119257726 -2.865303126834252
4381 7.00607837603975 -4.752518033021497 0.10484116395684899
4379 -2.3491482385735383 1.618434793631538 -7.132980490218916
4383 -6.813691918232043 -2.2317924106768254 2.637113518463838
4634 0.18901996842970348 5.434426998695656 -0.13367728493014389
4637 -12.43062785474488 -1.0048271927862114 -4.6284885048020925
4386 -3.141829889772302 -3.679245227476225 -9.865459574397914
4163 3.826689473107821 4.749038722589176 6.4175194815460515
4392 -3.4159903190827094 -3.0509301588215147 3.481202509372118
4418 -1.3848958642151474 3.395976331695265 2.5370456798640246
4419 -0.8346298281271284 -6.5485097694068815 -0.5277364399078854
4421 -5.631408530584813 0.09200299709561033 3.946884137862435
4424 -5.492123594077366 -1.897094011445432 -2.2922335700426335
4420 2.717061904628062 3.4284934972806598 1.2461327357266891
4417 3.2536976117502983 3.957225107694757 2.7965040291120737
4453 0.5139041745909338 3.3773271214020992 15.479542820687577
4449 -3.2353226267454844 0.43953257072675156 3.290057416679857
4422 0.036226839489694865 8.52543758605749 0.7325719802394982
4423 -1.9333066561284211 -1.6872367691350436 -2.746713542594252
4451 -0.9156748856553937 -4.652756489471854 6.807712460551111
4642 5.271181005714732 -5.062185044015141 0.11646546992740234
4673 -2.0500797072694645 1.2431999652543249 3.79980698723314
4705 4.03890450695292 -3.321572403673969 -7.303578616202118
4674 1.224111343824512 0.46001458784815186 -4.7439577941409485
4678 1.7306826085582474 1.8053606739395898 -4.758011567904926
4203 -5.730603794855095 -9.709949231627045 -1.9271336368363259
4176 -2.8027649194065725 5.341333153196803 -1.3747219591639015
4171 2.138209606546068 -2.8033635041734275 -2.4745256457522973
4172 2.015916237676867 -5.687048069013053 2.3997242372437855
4396 4.315281558343548 -5.025008495061802 0.42731706277657855
4650 5.236599057397123 3.272081429500404 -2.4367495721840586
4646 -0.6748901366436552 -3.016947378294284 2.734322615995114
4140 1.1522650404682409 -6.682323529293475 2.0505298937355403
4390 3.8405702815276044 -1.9638958375138957 -6.894214385050237
4400 -2.932176770914465 2.9948283369715796 2.8264800202455445
4394 2.7824825440967187 -5.792573196154105 8.09569752696293
4425 -2.886346285266021 -2.9208611865927945 3.7290366611155243
4426 -4.541573367403975 -2.2811622548194195 0.8808829413905517
4427 -2.822659631904962 1.3471264390571775 -1.2817901608929663
4428 -2.2200244759599745 -0.6138787782206304 2.2018354604702948
4455 0.027728775652911514 -5.455553454382352 2.6015726549103197
4461 2.5791486154690104 -9.374425737608828 -6.88799570847888
4432 -2.0679569751714895 9.93828808923757 6.966732701677596
4457 1.0353442032056017 0.9455252631552955 4.4199571667408435
4682 0.7884220927014092 5.973255398028923 -5.801005063147845
4713 9.675706061413056 -1.0082621281148365 1.3877518014169357
4179 -0.15347141464717842 -2.3040479226109567 -0.49532050308023595
4207 4.963703093080182 -0.8466701307976121 6.505287005867876
4429 -2.851637720856572 3.763104313815745 2.586044284855245
4717 -3.80279532307571 -15.57063246812231 1.9584453404627322
4398 1.0633986329842513 9.639520345577356 1.775796438875621
4402 -2.2214867780590355 2.1001652569484137 4.755278549681467
4430 -1.3220241483506903 5.119232730820552 4.758517834045812
4431 -0.8122693386789291 -3.5648489748919325 2.580301527553581
4433 3.2729358305686227 -2.000846304041574 -2.7724513952454286
4436 10.231644853729158 6.914653571628302 -2.0292396772960792
4435 3.598017514364791 3.2369467257856748 -5.722421397791026
4434 2.2017376628794034 -3.788829009367585 2.604094113501656
4463 -2.8568061021447893 1.9476075903020944 -3.5681333165719065
4465 8.561053494029142 5.025349668211245 2.419843951796062
4686 -2.217594079079167 -4.508330765300848 1.530423166528005
4467 6.27774415494706 -4.7975893712846585 -0.9539341529015739
4721 -1.4604082750064449 -3.1435507888983762 -10.242901519080808
4689 1.0297106321165663 2.5098995029353035 -6.9703536159953305
4690 -6.779377242680414 1.6266462993760964 6.723253595879005
4412 -0.36272595137660113 -0.9723584841811911 0.33901170559742344
4156 -6.3398001316447585 -5.244524937939595 1.7068369249574984
4406 0.5235984842042078 -2.5299793815325926 -0.7121173816835265
4437 -0.6685506824814832 8.67228622491389 -0.2783512838067263
4438 2.2969708308537964 -3.983366022603607 -2.5643692809959715
4439 -2.2897705973823035 -8.19221271993365 4.090631135951861
4440 -1.2417615402773043 1.4516972883965984 1.8512984445994027
4444 -5.700300757215323 2.4257018923164564 2.6182702893764866
4441 -1.101579926656947 -5.097916998498184 -1.0041455688097891
4469 -3.064405412620339 -7.496324334982485 -6.410527628510975
4473 1.7851747236548914 -3.589874306396638 3.1371808982993428
4694 2.2406893897765454 -4.604009158698416 2.000677691497581
4471 -6.22982383805803 2.394198088578584 -3.197541492542064
4729 -0.9421678157050649 -0.5195697662111027 1.3901671371116116
4192 6.8481637060164635 1.5755499057498954 -5.361534611139653
4410 -0.764369232492512 1.507232678966506 -1.0723589598341905
4416 3.538071901994303 -1.151525501063963 -7.009601105701908
4187 -4.006869656862458 1.8877482915661998 3.660857822919456
4414 5.449885806948161 5.120114089185704 -6.021295875720934
4442 -3.6685309317479486 0.9562859577126983 -4.560877082996367
4443 1.1547859186958593 -2.1670356901540377 5.051976302544265
4445 -3.98865234141624 -0.12119121989301437 -4.397219719793821
4446 1.649369231501768 8.559995942649207 0.8926193828018605
4447 -1.904427577638393 -4.9581605399648305 4.520359197625116
4448 -1.0022290488487582 11.002190026703412 -3.6486822778889345
4479 3.5010826490419933 -7.346479352680868 1.9952973580191726
4702 -3.0106534692835765 -1.7864471816368943 3.4628190672930894
4666 3.5958371259111495 5.884571493350829 -4.120294431726365
4701 -4.167618425810092 0.7970068477038672 4.378733654281345
4698 -1.5284765863154384 -4.230253078473585 -6.827430419094682
4228 2.8080936984144156 0.35660636102501064 3.777182063289802
4231 -5.278047668877684 -9.275734720525858 4.420748945487103
4195 2.5114276352611693 -1.7457675617729924 0.30263211372663257
4200 6.667510728902061 5.89599299355429 1.1589957246734357
4450 -1.9977757398498168 -5.763060738375805 1.9934629594819595
4456 -1.4969382905618995 -5.2715078799786035 -2.7660412978964426
4482 0.31278227629577393 4.092856183879185 7.385239526490947
4483 -0.32212291382236496 -1.1024111633560196 -1.7911744372669904
4485 -4.760616142352496 -3.331472054854721 -3.7171318305321788
4481 10.15740869669067 -3.34760677960164 -6.249152606898874
4452 -6.373076349895302 -2.5219803628857353 2.2723029378493655
4488 -7.629765253109241 3.6021439983246792 -2.6686465778568254
4484 -4.20533753393764 -4.20910841749952 -1.0628220435842646
4706 3.773970408462561 6.418697714716163 8.020895787489206
4737 -0.617122331138573 -3.4087268448392622 6.463682380639392
4486 -5.537485610484168 -0.34657188855259435 3.8762308710188256
4454 1.0705599779834867 1.0093410767516915 -4.893816378861593
4742 -6.8575514473363 9.427667980841457 3.9849121815365547
4709 6.6398113233806955 -0.3271722223099779 -8.743442836920128
4738 -1.2263428837619057 3.5091283118534293 -5.0266167821647025
4741 3.4652247895639308 -3.3718197369883547 -10.401802970229122
4240 3.5253986666872503 -6.3956991497646865 -0.9890328658468759
4208 1.9990686538740365 -1.6349230175349954 -3.0987678126266487
4459 -2.283020301067228 6.721823761289871 -7.4655751061780515
4235 6.3865027458490395 6.443720454644564 -1.061501935397749
4487 -2.8448997206971254 9.221713131491914 -3.5739090858151705
4236 2.950481891542717 -0.9873636882296413 8.850334955102543
4458 3.7178214587445897 3.8441665663141262 0.6077273740894471
4460 1.6010095504091628 4.610874702107798 -3.377887210378558
4489 -6.637960043560332 -7.790006458934491 1.026733947429666
4491 -2.4451673371682 1.384062659936896 -4.445998004537911
4492 -1.107009904255392 0.7176495033267305 0.3745440324618627
4490 2.795184884929105 -0.13789912438009827 -4.13916338321059
4496 -2.797499225346786 3.8835920415891154 1.3122334399708613
4464 0.3113582512549614 4.250616021974446 6.667946422486996
4714 0.6114300769446956 -1.9477847743721604 -1.062586131118171
4746 -6.544862316140816 -5.063600505076487 -0.515867494925597
4749 0.8171101540334604 2.0030556216312445 -5.6608740111439495
4239 -2.4767309506711457 8.465137403483087 4.186806993702877
4244 7.523845476078438 2.783902115002149 -1.0850805019722007
4493 -6.1098392045486145 0.03262758779630668 -5.709259824300806
4462 7.7508831817856105 -6.366318557700947 3.9441976978415587
4468 2.0191343622332942 -1.9932680596192434 -1.3326987631210356
4494 -0.009281373337215945 -2.100974831000547 5.731145677263854
4495 -1.0001603677349764 4.548339135247759 -2.757620530822709
4497 -2.23661110139298 -2.5788343058473755 -2.1368699155419058
4500 6.053265111007264 -2.2727986178712447 5.6382785869659235
4499 0.07718339412536636 0.8224838361295156 -5.754435281236214
4498 0.5422265698975387 2.805728831812859 5.218757418295338
4466 -3.334709170199813 -6.214173756425643 9.321672549381873
4753 0.22443809291147607 -6.861188493634003 2.5816450007594542
4750 -1.7676181265710897 -0.07669730395201524 -3.1901965286691913
4718 -5.838062048213651 -5.421269935105357 2.969193703180723
4252 -3.8357522466800673 0.39832609262891305 -1.9241255647589177
4220 -2.265074282999149 -4.288931527840822 5.585822281595957
4470 -4.5763390748438475 -9.535019282347395 0.4547003826297153
4472 3.8776232957941907 -3.6034066271036527 -8.898495387005514
4476 -0.7669953255874196 5.139349667672701 1.1073425190058939
4501 -1.8040242246508749 -4.488948371831481 2.5185462407190116
4502 -3.281566807244442 1.4224996223492705 -1.348554535495968
4503 -7.24369905264108 -2.6394134646592793 0.58324712367989
4504 -0.43445124706625465 -1.2352560427532826 -4.668396094844431
4505 -2.15058844635262 -0.16295500093580004 7.642105557541391
4508 -6.75390092994945 -1.7241292783524809 -2.841288597277803
4757 5.675525231055574 -3.5445867979015917 4.799478170183927
4726 2.3450044605555522 -1.1708329987107624 4.291503065699784
4256 -5.2026197423005085 -1.5691721305781727 -5.996762684304366
4255 1.4132561002654296 10.947480719241321 0.062256265871351246
4475 2.5525024232391633 0.12287747602975069 4.881123412628937
4477 -8.535955039752295 -1.719467993178812 0.024374976056301886
4507 -1.490594839207115 1.5621072268130383 -2.1695428629207982
4474 -2.9306602368028467 -2.4960263033426298 2.1004298612061714
4478 -3.7552191389822234 3.5575881659407202 -5.32070336534887
4480 -3.298970055972436 -1.7912478336979791 -6.53525086366915
4509 0.5732113008513692 7.720418040172272 5.755849898194907
4510 -1.3374892778897047 0.771256064652338 -2.1273858814496682
4511 -5.844480931525071 1.8493456452683448 2.8293583327809873
4512 -4.019129186619902 3.5939131077988025 0.8235008052408732
4506 0.6513307884645384 -5.419530839281845 4.861707782796299
4766 -6.780315132407656 3.467266811026716 -6.534144365649944
4733 -3.94714077520104 0.5019678212321486 1.0243474535142083
4765 -5.233451635317269 -2.3118839450054414 -7.0731648059308725
4730 -1.7566746555870223 10.802825549568505 2.741904579921446
4734 2.6998884046493767 7.70629797244224 2.940768056206219
4291 -2.291228008749005 -0.3905951918901941 4.293586079572101
4264 -1.3155379322375467 -1.7951073057344986 1.5009036487311562
4260 2.7770289633549066 -7.42077869639588 -5.626680495130889
4515 -1.9919452368348056 4.016538770901976 -4.632641494398523
4514 2.9366603890044645 1.8182114584220794 -9.791770453503554
4517 2.0965280012324015 -0.8032999871765227 -2.6819150048546563
4520 2.7095253288777563 -5.273108219041865 -3.2634421584850144
4547 -0.9833455271047714 -5.9493056478669955 -1.6882338074280687
4549 -1.2682910552469449 -1.0679757184234249 1.017451678747333
4545 6.042538923946677 7.941503556540913 -4.157775320706355
4513 -8.001286524447789 -0.9354722762975095 0.3114246168419631
4516 -7.366105664730263 2.3562477442706293 -3.780419541174067
4263 -4.067062388185525 -5.928634017929262 4.497130385578213
4518 -1.3269796097955002 -2.924592889004508 1.3468779716786534
4773 0.25655188341805685 1.6978228726266138 6.400185066484216
4770 -0.4501801640743884 -2.583668519716582 2.734885093239198
4805 -4.677896417863659 -0.8680644779320114 -5.366059042513285
4801 0.28282047430080154 -7.479616734760369 1.1701984620682244
4769 -0.9382453229278345 3.113554262102797 -3.6318071994325525
4268 3.4273521743256685 -4.207119143821981 -6.022356421732633
4267 1.4040479818935083 -0.3695315065971183 -1.9888457867659357
4519 3.3465753515099057 -1.8604529575694946 10.838413240022152
4295 1.4779718791048266 3.0436850833989673 -5.340473114292439
4299 3.257721604060646 -4.32452625662747 -1.277727901519071
4272 0.9696139889556274 -0.7794731055195665 12.69198677046134
4551 7.342532575804341 4.9482640334008 -1.7260370407280257
4521 2.44593124787386 -2.1262369336380162 -10.439015964822937
4522 -5.290067102849414 5.1102141040379205 -0.5595569008067391
4523 -0.7359733463889541 -1.4581343322622284 -3.113603541661471
4524 -5.435155279465014 -7.739749174530699 2.705828542591021
4553 -2.5565868127389675 0.14519227113361777 1.2080624122896446
4555 -1.0186002806193615 0.14507541998285167 -0.2130225136115048
4528 -8.14134763653571 -1.9424665969419905 0.013488006744386938
4525 -5.2501342772368735 -0.018450858489806446 1.4845513160414396
4557 -4.136090929766388 3.2038338554955272 5.775235761424289
4777 -1.6523621771319459 5.966224178641916 -1.6083167946932724
4307 2.274745159875937 3.566387061852996 -1.8363305105992316
4276 -3.236147115917763 -6.506912055362842 1.9905062368694282
4275 9.333538268435072 3.193210346283901 1.2390907404204303
4271 -7.892672666457327 -6.5932832467914775 -1.100176049897268
4529 2.162465668341929 -4.9466622501380275 -1.955766430065358
4526 1.567610910716999 -8.465353002555538 4.429799653269945
4527 1.7562661580516403 -1.624882850179823 -1.2836251041526052
4532 2.70875714633562 -4.737692114706046 2.1212127222750823
4559 -3.9597671943211834 2.8801293772995322 4.489011230495127
4561 8.9732539939414 -1.6410096028096268 0.28479814118041447
4563 3.8639160667150434 2.253185247291224 -4.329408832997921
4530 -4.3623603796399015 -0.2705505275047597 4.011168697476895
4531 1.5719484434893767 -6.807594857293088 4.8662759056575275
4785 -8.276021557370346 4.179271904478219 5.792028753056539
4786 2.633212884854255 -0.7815635528544679 6.443693021121668
4284 6.672559221763321 -6.898615345813206 -1.558553581858227
4311 0.659979121656397 -0.3854494838966888 -4.336110668839915
4533 2.5414625854063173 -5.551046080895459 8.366059472303238
4534 14.09518602462008 2.51767351709286 -2.4828748950057546
4535 2.4271057911888323 -3.0990124820025735 1.2809811625719554
4536 -0.8553126520030307 -4.069536201421555 -9.856569827392685
4537 -2.1423412848191723 -0.24127300808585944 -5.418613820910534
4540 0.65780707389639 2.527272258262183 0.10861931971737546
4565 1.6336840276923161 2.303144476686146 2.956415141648338
4567 -5.087371593594863 -0.49606083956859814 14.541850295284732
4569 -5.673671142485156 6.512440638861298 0.19485517329460283
4790 -2.217473385975406 6.498749368256241 -1.6082501054560456
4287 0.40085170210249343 2.61246819009405 -4.888665422569538
4283 -4.373600261974256 3.0452234366354114 0.6254855383180213
4538 -6.595499542444803 -3.183825089217979 2.7267902750835793
4539 3.6084383030232323 -3.7273021038879013 -3.1314244307753483
4541 -1.8529994950396549 -4.470143765736265 -2.172408570036515
4542 0.37046543031500856 4.5946498151036685 9.204166635620707
4543 -3.2005734604221727 4.131430634162781 0.5545418744910028
4544 -6.5541474063352725 5.564096703776701 -0.6128632973686549
4571 -2.8045982983817574 0.6978494002941145 -9.042654383570593
4573 2.364172274952189 -1.55074104992055 -5.77482397193576
4575 2.695036673952555 5.662224596507598 2.9166335328788335
4829 -0.963771150100236 3.1511172602093893 4.373802565958223
4798 -3.260864756164745 3.301576896222453 -4.12554353698084
4794 -3.7683621046020708 -3.4633283066521487 -2.4585297320327366
4292 3.154026332406002 0.0885229308079704 1.996121515002498
4296 0.6898533070552828 3.4091221668277223 8.719966146993642
4328 6.479460372399763 -1.113742974990861 2.661329114079679
4323 -5.738012726775574 -4.178821759562104 -7.664118814870988
4546 -2.3669557857329493 0.29077406255131655 -4.665718691708719
4552 -6.410983260161949 4.21472973719886 9.065027480320362
4548 -4.142143434539263 -8.30275296379329 -7.470823940371866
4578 0.051673033823613795 4.957081793560069 -1.894743525137833
4579 1.6271802844282934 3.5123228688496235 -8.949866513122824
4581 5.548120469697648 -3.729518047534353 8.154189863785245
4584 -3.2582497108542583 0.04558293840424425 -6.885417925010259
4580 0.8357609034599005 -11.039930928896178 -1.780049039611746
4577 3.707004927655272 -3.6724121842941826 2.8190090599621596
4802 -4.04679786979761 -1.8404518699267407 1.354751436963368
4834 -5.096393554230484 2.6432291513020063 -0.16703293522242912
4833 0.8933401876699882 -0.7132367022579084 -3.1516999303907625
4837 2.3768692902510176 -5.6463971799747465 -1.1035262327360917
4300 0.5371606920267004 0.3900890911321542 7.705139273850821
4327 -5.134276733803401 3.480505661004326 -7.146112881124582
4331 3.4254593689376156 -3.283835254388592 -4.090403285720507
4582 -0.6129303772398471 -11.364607684492109 -0.32825999441972026
4583 -5.430481476866013 3.8195754855696156 4.706904338735046
4304 -6.947967446607221 -4.817094872130471 -0.9163057239022496
4550 5.635637796747631 -3.5953208120669715 -4.590546321988873
4554 -3.6625552225322053 -5.184241974795425 6.816552259010685
4556 -2.2509054942095106 0.18377270408066615 -6.401755059283086
4585 3.2279511517739303 -1.7572126966309638 2.833725963290322
4586 -3.1148770877422756 -3.7040407383594967 6.333392953425113
4587 -2.446213137826024 4.367867879982361 -0.12340591043870454
4588 -7.168135285406277 -0.2174998996728358 6.110916917397434
4592 7.9372019786051355 1.6316373204023153 -8.253260410297974
4589 2.518266876849559 -11.202298908239202 0.1808961373011099
4560 -0.6463253661291347 -0.433401836439785 -2.07523327086779
4841 -11.443620660437878 -4.246962953975124 0.8621715908020622
4845 -3.117379271187209 9.347345067828105 0.46887448912941576
4810 7.202533191596297 5.024516567051061 2.0519979469609
4806 -7.454886924813993 7.677807943507349 5.7997807683770075
4842 -6.445599985495295 1.9628945811626075 1.3394424093394406
4308 -3.9496312832709806 -3.456296287475716 1.6634735165382768
4335 3.2312174520888406 2.2876447293368223 -2.9545959589283233
4339 -4.144874984353162 9.811615059325856 8.676455280782484
4564 4.587539667559969 -3.2716123678890585 -10.750669338998152
4558 3.412611534712735 1.8126619734614133 -0.9097269338177373
4590 6.607729046866808 -1.2925104232851141 -3.1978091024390034
4591 -5.537805014987899 -2.901706180518535 7.248594197497441
4593 0.5042536608441528 -5.829404889426881 1.5078049152593134
4596 -1.4973484300624182 -5.42085195763952 -7.104475229911656
4594 -2.7955843063388786 -1.0385557123898685 -2.9918348564210184
4595 -0.42724523547738336 5.576987292424655 3.3766152008701695
4562 -1.3697306092242418 -1.006511622875174 0.2955420462877623
4850 0.31313518701950793 -7.858832561534086 10.400594734474858
4849 -0.515101779742707 1.9484262432763564 -4.178014887978549
4312 -11.351451038659302 2.594817625060943 -4.105749416519872
4344 7.7557311015191495 -0.9092760836268701 -2.08268067663265
4348 2.036999209722734 3.5345201856473305 -2.4239721134892465
4343 -3.675588175682505 0.9766046764430943 1.223873284575673
4572 1.175646542263892 5.241441922712286 -2.043552547046143
4568 -3.3952170112589397 3.6559455350278083 8.023692330227508
4566 0.5062495889331886 1.4557111489817007 -1.398682443297996
4597 10.650063858461065 2.4185235313997833 8.201513342145407
4598 -0.05687588004006193 -0.45784443762988175 0.5647740163742844
4599 4.779108628620139 -3.8062650359299326 10.912307377446789
4600 -3.842101959103554 -7.87909649607367 1.0265080763020495
4601 -3.282308072381077 -0.013142794406938246 -2.4113681778695524
4604 4.299200221629766 4.261939964438836 3.0548783296157302
4853 -5.813903464720641 -6.724109866477636 2.9352525919657566
4822 4.537605712651057 0.9298113438136916 3.166803232890388
4857 -2.0020504973386912 -2.3731514193004544 1.4369034807262744
4352 8.362143431189685 -3.549293261008171 -1.828289807354014
4576 -5.531677314605045 0.25753875574979734 -1.0305749291537816
4574 -0.20902470626796468 -4.637488242000979 -1.6930040606193553
4570 4.095089637696513 -1.948499464628006 -3.6640126302795113
4602 -2.3439396716208614 -3.3358352229215926 -3.9577463299154303
4603 -1.5129540776633865 1.1289238091672344 -1.200802444289297
4605 4.896503062300615 2.852141425257356 -4.48089562681736
4606 -0.6251591729812915 0.1785357252342668 3.8707919511681728
4607 13.429910263761542 7.566845076686171 0.15405081215892583
4608 -4.047258338321548 -8.410948296944467 -1.1361715133688464
4861 3.736516921264937 -7.7313171155661955 -1.1747454379333016
4830 3.9749071483722385 -4.48901749405201 -3.4115831345787484
4826 -1.000075367369708 -4.202875648990863 5.457572450993267
4862 4.969258939715245 -2.288723618095235 2.138828025995142
4645 1.6370703313828185 -4.338638658959092 3.467751160874224
4610 0.026935186332022687 -4.364665220559674 4.641978073327148
4609 13.273295159704169 -1.9887670759865275 3.890730938095699
4616 2.5335390970333926 -0.04937212460814816 -2.472229536743624
4643 -3.5054883831083004 6.149179284981144 4.584916435575846
4866 5.612730210076981 -13.144090953063314 -3.0527767978039324
4901 -2.4044625331269716 -0.5843070795213463 5.962052071078405
4897 -6.45031232277676 -2.909988445803771 1.4045912422998261
4865 -6.5858708539885775 -5.147794767521887 0.4043763257688374
4869 6.778840222247275 0.13859173081231904 -2.669261991250538
4612 5.869630215492795 8.430047321827129 0.05149992578324218
4872 3.2409227443949162 -1.0341028720151484 10.589824055410945
4644 -6.508858513150731 1.9123292135604202 -2.7327285737028033
4611 -3.2778487129334577 5.911168196212717 1.0437146687088776
4899 2.256885982349043 7.238698473162462 -7.838122015685189
4867 4.707555074170947 -0.6431068206396364 0.1626590037407767
4621 -3.453501247990491 1.0884154533357429 6.0282132657372
4647 -3.7207576594233984 -1.2389353514535324 -1.7882289736986823
4870 11.11010082839085 -6.865734019407596 6.87751509124374
4615 -2.329562389627952 1.7260365751503302 -0.8725271598346038
4871 5.33907591978652 4.742325005768712 -7.268301458385666
4620 0.06006947258490898 -10.112829423590735 1.149474669762524
4651 6.847198063044159 -1.146084780554358 -4.351260915671386
4874 9.471706817609947 -2.448463878540711 -2.202482206218156
4905 -3.349083818861402 -1.3104739633481155 2.016156743572248
4909 -5.131510895479272 0.7710759576577504 2.8052963543121754
4877 -0.09961211541942294 -2.812518373473316 4.412499677208444
4873 -3.130390582034466 5.825724932932925 0.4168982587179905
4619 -6.217879244878808 -10.384100448196078 -4.524091248468828
4880 -2.01106184872785 3.172286690258153 2.2257990425371283
4876 0.420586426262633 1.1530219606976582 4.769405402298727
4907 -3.472542974962629 7.739581303602483 1.9032598546361725
4622 -1.6746774774304147 -1.6987473796992176 2.133892076797457
4625 3.5086239322672816 -0.13733852724076018 1.8699271399653714
4624 -3.097467609157748 1.6198841657075433 2.91752979964565
4628 -2.304591214667317 12.068416335675156 2.22671143259646
4655 -0.6858455149958097 -2.579866444755654 -2.9614169674986623
4878 0.1895271565213155 -1.1999143874229632 3.638264323867251
4913 -8.569942649232509 -6.7545639910365285 0.57707033215393
4623 3.142515548859402 -0.34119451318068117 1.955078629937832
4882 -5.930602746954696 -0.767675774223121 -0.41287842063727087
4627 0.04156254309253414 -1.9337110189116535 -4.265039354980212
4659 -3.4050568910766197 4.245143573977105 -3.7989480849160935
4881 9.41435120978121 -3.0287868704841183 4.977419298499673
4911 4.064524277010168 -6.006128767917447 0.5117181341619178
4661 -8.228286309266409 1.6320320006920406 1.3908086291064488
4630 -4.357031134765319 1.9294419080719796 -0.07756863704719735
4633 -0.11559555953558706 -0.36997876916690453 3.855737196767411
4665 2.385938954588191 -1.091392012483547 2.598731447245526
4632 -9.57236183890104 -0.781239593787449 1.6589585018975366
4636 -9.541092753365898 -1.5637268303396705 -2.151610525835352
4663 3.2196457726137293 2.208858097860878 -1.1145238222877
4886 3.2245025816263126 -6.405675676459606 -2.179482811972641
4917 0.9291903341545449 2.0244977577426404 -10.42673641610936
4921 2.608273760672807 0.11526698323080951 -4.706108296281637
4885 -2.4033128929547405 1.6546524001614882 4.016086271759899
4889 -0.06293726192608921 6.409561857306686 -3.9847011717596965
4631 1.3366998594059654 -8.39213363210546 4.860961187043927
4888 9.805938615008596 6.916210956929259 -0.21543674654868236
4629 -1.3150852966942066 -7.591239317236003 -3.265417919315014
4918 1.668360960042478 -2.977715653172658 9.83589886929443
4669 2.4746454692169926 -0.5278943994786515 -0.3305416327023865
4638 -4.9834152230877775 -1.2511884712190589 -2.467667577305843
4640 9.579577595154031 -2.175594630357714 0.5940408069245483
4667 2.157857780407854 -3.263009928502248 5.489271996709901
4671 2.3045483920188157 -2.480162542546393 -8.653587235454989
4890 5.543508203388535 2.164384389189752 0.8722998944512912
4894 0.8060408312545908 -1.0559764787445445 -1.0669832407133373
4925 -2.0508101289623935 0.7327999306353162 5.087480404791664
4635 -2.615890907327982 -4.141769339204708 2.6064539343542807
4893 4.5636670794872 5.521044117727554 -5.433049950207873
4639 -1.2426213435293434 4.908257427870244 3.907075737727002
4895 -8.499034046176245 2.043459480972856 -1.4213256223164699
4927 -0.751696922322271 -1.3875334535425525 -9.798789714681941
4677 1.0753064565565502 -2.8115131724781968 2.6644176497342156
4898 -1.1505630314251587 1.6968700644984964 -0.532084108762145
4648 7.7171757027892385 2.0078587269733843 -3.9642231818975784
4675 -4.635657398664495 -0.27627927847192063 -2.6783444773901928
4680 -2.414803383974227 -3.3334787870921785 0.5432732250828937
4930 2.3351590560776985 4.663062561579851 -2.211852740924666
4933 -3.7197065110796013 -5.114144272856177 2.8965285612690637
4676 -4.198016440940123 9.24128349518469 -7.790384728642882
4929 -3.640323525849467 4.2418776973539 3.932499141369716
4707 4.282399823860625 -1.1388984664070696 1.0910057352991447
4936 -1.1195384797531482 9.490891580608029 -2.4250544454409857
4961 1.3177105971279053 2.9973425566537997 3.188886627917645
4963 1.5440086694910786 -0.35266417764077124 -4.33684709331427
4681 -4.510878741145061 0.011167467578653445 -5.118732414963341
4685 -2.5063054746087694 1.1075872673980904 -6.215933116908817
4652 2.5751574171294895 0.747494162855154 0.9129285911203904
4902 -1.096625012900995 6.112509255580173 -1.4849721624811623
4935 -0.8213238934917347 -4.084295714748999 2.146311807798775
4906 0.9510102799538075 8.203968345313747 3.1007397810045134
4656 -3.8385860867651145 3.102627861360356 1.2337970941990064
4679 2.5596250761420793 -8.503372977398529 -7.587341537340938
4934 -0.9833790086240993 1.0181688865152685 5.592276035260962
4683 -2.187290847315725 4.481310931440492 1.872572701199965
4684 3.1109489026427064 -9.50191293390393 -6.1055353446537515
4937 3.6090060704867146 -3.7611079091911868 3.3205707397553743
4938 4.4752519524587235 -4.802908743901104 5.408662317671713
4688 -6.847241290448692 -2.9869185677411254 -4.101998568923635
4941 -1.6531814804507208 -7.245357269636603 5.099923783596592
4973 4.176782395114426 -3.543394488717575 -0.26557199410519594
4908 -1.8672307037091767 4.76330386927021 7.563035601464065
4967 -6.345027775891996 -8.934812726024159 -3.0897760263001315
4940 1.554063308121562 -4.056061502305002 1.963028979451764
4654 5.9633651845884 -8.473001549680772 -1.3531022373777912
4658 3.577221115535377 4.240863148489503 -2.0205352078877072
4910 3.6994117915260354 -0.35953590709730526 5.5218132567019
4660 -0.8503894511187586 3.3908775177134065 -4.0760107679203585
4914 4.7445444308863065 -2.3993416024287226 3.6349279344923766
4916 -4.97171388524503 1.0385632434684298 -0.5899986775020534
4687 0.627933530285704 5.269871966705139 -2.1373543210747705
4692 2.9852561501064514 7.941375053153937 0.3596705448483962
4942 1.353253553761044 0.06327486098131868 -1.5015516030768488
4945 -4.4047950502201445 -0.6000159392198533 4.344970545603435
4691 5.220647136482436 0.5538881957219045 5.21158478985269
4946 -2.5382979029299166 5.8357854838060765 -6.851855161973398
4723 1.3061609436397403 3.6084726972146073 3.128000371395531
4977 3.096336135958292 -0.2142512270931803 -7.5039935906781965
4719 4.564822918565141 4.3051309787190855 -5.096118883496149
4948 7.285480170902709 6.156607006771072 -2.7543511673120675
4947 5.804200158553346 1.2387901982084446 -2.324189821186657
4943 0.20311123342637957 3.1087874165164577 2.6192930828240453
4975 -1.7460626361139797 5.684399316350684 -3.452738447439703
4697 5.685133185363924 0.4598694156097409 2.1991941165870754
4725 4.25385881496402 -1.6776261366578655 -3.0578400155740884
4693 8.35500048977503 2.706929612216634 3.196639285264259
4662 -6.006477644528452 -3.0176299752991995 0.5183935888123058
4668 3.4677253997938875 -1.6242988370146745 2.649104152505584
4664 2.3864350604343234 -0.8939156174037132 6.158057404720959
4695 -2.096758418854466 0.1355663148814618 -1.2570905595669668
4696 5.38684190525828 -1.2854703574116042 -1.2704793498660458
4700 1.1475051235827465 -3.282390737018565 0.9078366461975346
4949 -4.361505032883457 -4.550615700881118 1.6768021465909644
4950 2.7533988046465727 1.4857625802936303 3.517476232110104
4953 -0.6332014794284823 -4.6145206054719985 -1.297023350345006
4981 -4.5373809538783645 -14.271388673915448 -1.2223406456989818
4727 1.9170293813708272 2.825705464740038 0.05788170270967078
4985 10.607660234479019 -1.9467030883740732 4.593701057833058
4956 -4.339871020948526 6.106882540235261 2.637991322843726
4924 -1.663421372890225 -3.577590517181225 -1.1479591048958833
4983 -3.1216434187806645 1.6636075125618568 -10.432458368855249
4952 8.34427181188027 -0.247228341262065 1.3250811659782116
4951 -4.406860614198313 1.7358596087691953 -3.8553252997966085
4926 4.921113782105397 -4.9632689932786525 2.627713293084317
4670 4.763822236495511 0.4629123146881057 0.690831317567436
4922 0.8017112069422453 3.4609116163762392 -0.5223590384670778
4928 0.49313359175690075 -3.438258636899501 0.790803265859858
4672 -4.262332774273097 -6.372417200602045 -1.1887657477775129
4699 -6.325440831143908 7.088439341402321 2.898159691663235
4703 5.7786271648683005 -6.1574327091414505 -0.18582726705033878
4704 3.7895568919331533 -10.319269379966048 -1.5188446710464198
4954 -9.588349146079414 7.911932994736283 -1.7978890819232118
4957 4.9462365104424375 -1.6615246606259644 8.43702266898411
4958 -1.2955672819004043 -2.3941216936173912 -6.605216631610785
4735 -0.875777673180658 4.343276416705081 -2.0038764040684636
4959 -1.6106374385973266 -2.0323878616435898 -0.893463888355078
4960 7.222012973571264 1.8447319408291165 13.298450689747655
4955 5.800771340058124 -0.1775348683347634 8.445758781676323
4991 -5.6756096864614785 5.7335119377814925 7.408196793490118
4965 2.257709319733751 1.2210621081162183 -6.560427171938128
4711 -6.878398743019579 5.224636391946521 -7.264760846480937
4712 -1.4053629391147993 -3.8761627244490238 -7.623527445670136
4739 8.190693396643528 5.2933632858251505 -2.751689944553103
4744 -2.832066134961755 1.513635830227827 -3.234012208378032
4962 1.438880913432531 3.8842850603856567 5.139377304067869
4997 -5.8657379319212275 -2.645529968509708 0.47716273097241907
4993 1.3943301767422212 -5.598773792890518 -1.836586179410952
4740 -1.3338424070795178 5.605547530526528 9.366440402053922
4994 -3.666484422423429 -5.642237111200331 1.1505733620534044
4708 -12.731166418217903 -6.1124817828757845 5.2198709090257935
4743 3.532335938490752 7.552357579808887 4.146529947039156
4998 -4.802223795405806 -5.67345464160014 -1.8403191963756498
4966 0.47019134737446033 -10.607427653095186 0.5453635669320887
5000 2.4594008600576167 2.8476837192486255 1.9654976964541544
4745 -0.9229327844203071 -0.13304819490917363 -2.236013898939556
4969 -5.450215686820735 -3.280941197659332 3.597072520412571
4715 3.4098541764382904 -1.4825353735515827 3.857642446403986
4971 1.0562169595115667 -1.3450968752437702 1.2981924621360925
4710 -1.8275400633741692 -0.953059744600982 12.516420487979248
4716 -7.498297920920172 -6.17659917470047 0.09472608778894683
4747 2.080327810008598 -1.4505042108499242 -0.4776265617775156
4748 -0.635804263715069 3.483967980314364 -1.779608265582454
4970 -4.871650407021662 1.7461909378736393 1.3019554177105446
5001 10.251673231847686 -3.625519787900845 -0.8573468451607296
5002 0.13746123863123688 -2.5546749842221903 2.015529590573363
5005 -4.812827658421636 2.6488841708650863 4.698982661587074
4752 -1.447394314760679 -1.7114138514283461 -0.4192600167769561
4720 -2.1417973469952867 2.3982107397739334 -0.20992366837080756
5008 2.00070516293665 8.92894874690343 0.07615556052529543
4722 -0.7617824730308216 2.0735570867683584 7.400424120894085
4754 8.557562568208905 0.8592579337855948 8.454659632159647
4979 -1.5833097020742595 -0.4410883152433623 2.2128116455492104
4724 6.640813642934338 -9.191166405019642 -1.5242228916975127
4751 0.5567705191535953 5.814188131197082 3.4654618522680845
4756 0.14437780927370938 3.443173038164836 0.5877677640888133
4974 3.9119334567274837 0.16526021774399274 0.7325458469647153
5006 -5.9328099107154815 -2.325313556227549 -0.040356720507086684
5009 -1.211121508446646 -0.6685387621577317 -6.648966926423211
4755 0.5099840808030153 -4.636179307013129 -2.5127423229614214
5010 0.93142583720461 -8.220312388987146 5.280696704920445
4978 0.8330463462003704 -1.348808026152308 -5.65168969621927
5012 0.6237811936414088 -2.911928482030037 2.6920289626711993
4980 0.2538732894864792 1.3440838586734676 3.8355871007473
4761 -2.271396185274364 -1.3310032645984065 5.697986791237456
4758 10.553664561320284 -1.319548009346574 -4.629745868939836
4728 -1.4417076038547254 10.007991609202815 1.867137895864575
4732 1.995135372450848 -4.642532584496145 7.151329563203314
4759 3.949910083899762 -1.5805380131328195 2.835514492223088
4760 -2.751463388543232 0.8391308849634993 -3.2126190161215824
4764 -3.1392364337671994 4.26012350494091 -4.631887156184206
4982 -1.9700556032807024 -7.908854357083777 2.3128012225458994
5013 -1.3087830774653586 -0.13170066465575722 -2.6888144258446047
5017 5.763012394329222 1.2129935750998009 7.609392157767988
5014 1.611131041344983 -1.7881087394306852 6.586585190208008
5016 -0.009721345115932593 0.8565173353351786 -1.332532866817759
5015 -1.9164123964393098 -0.14372373436380376 -12.889048051608196
4988 -15.245009001806782 -2.8115024780095332 4.250450266932149
5020 -5.005167243849462 -4.788100807610616 3.751642768971129
4989 -0.6588377185156277 -2.3543644492002467 1.470284013690784
4731 -1.1046346886347271 0.3465292397807361 3.285386865863424
4762 2.2589487325581366 0.45677299711485947 0.5344614577673374
4736 1.184358906595982 -4.519399779219598 3.916324785949131
4763 5.669300783249914 10.82898633696563 10.31368961138668
4767 12.557992283646472 -7.820747599501703 -2.4454152748843305
4768 -2.496810156664312 1.0021628207816515 0.16027611462596622
4986 5.8712902531473095 3.395019107751987 -0.19064993793439344
4990 5.740093325167806 0.2731102119674497 -1.6878565575747981
5018 0.29623776790703005 -1.3141700309248776 -1.4658532156450508
5021 0.669352682833842 -4.947945408273926 5.056926394680442
5022 0.4659757837850085 -0.7115482983727361 1.3909202332154453
5019 1.327388845633497 1.5267206565527107 -1.0101585954252286
5024 5.372235566503532 -3.5184598241728557 -2.1960391658756695
4987 1.612656001358972 -5.899491857543645 -6.1094956049238025
5023 -0.6856140158027366 -0.3270556077319986 -5.67895821871489
4771 -4.450807326617971 -3.7026803566113418 2.787196771906914
4776 -6.217599212479379 2.5017446207710474 -2.7625103377938
4803 -0.09727431745533624 -3.2972285165981066 -5.874481806611471
5026 0.7466044918069824 4.218942367909044 0.5979322979789482
5029 3.590667757423878 -8.319787992520528 0.4638304727686565
5061 0.30668595132157944 7.422201564860512 -3.5685496539651287
5025 -6.443136119016621 -5.706359020192319 -8.795683898070244
4772 0.469020388542011 0.30661373620901766 -0.06527317618727774
5057 2.371108832687796 1.5002296438129015 10.092625881687777
5059 4.560680251575185 -8.24314610254467 -3.3577453737025187
5028 5.9327322519272405 1.5076114125646927 -3.2038440511901864
4775 0.19226322405656446 -7.055753937556944 -1.5411306676657044
5030 -1.8081911715357448 -5.484048298828373 -2.5385269323433803
4807 -0.46932310869114496 6.8142884249359925 0.9890410827781627
4774 -0.5023776529946221 4.392761847248153 -5.435686636458809
4781 -2.9757534922436704 1.8010997852971249 -2.6701774083133745
4778 12.132413360143785 4.363019989899264 -5.73454974964276
4813 -1.8665341127169208 1.1610336308919984 -0.7267291338539708
5063 -5.972776416094861 7.740831085711454 0.1734570199631261
4809 -3.2004876328406073 5.23732678031059 -3.446943253208496
4779 -3.9485243603470845 5.541098186949826 -7.418644747284613
4780 5.871952904805491 -2.7594904359574204 -5.2266829962323245
4811 -6.448827763311593 -8.692628306513388 5.951667902563684
5033 6.072239824883378 -1.21183089281649 5.65552365488607
5034 5.3873314384564095 0.9294578527959463 -1.521752192801633
5065 15.214025815947497 -0.6335207305223806 1.2892078401854534
4784 2.445069479763253 8.288938620077822 5.2462721440788815
5036 -4.464883617887509 3.5778227858007328 -1.7270009660635568
5037 0.04117799558255487 0.5476788002571686 3.8482514203175575
5040 9.437330212140697 -3.377792838237193 3.911006254638784
5069 -7.267560725399732 -6.234010599098497 -1.6332569777624213
5035 5.980879961167485 -9.745074667942975 -1.225003980231756
4782 -1.4034673834735405 3.7506913179233434 4.6105006417079135
4817 -6.13249817172996 -2.572696956969318 0.23634619971729987
5041 -0.4655567477557832 7.059327839099522 -5.517373200780496
4783 -14.415972506960905 -1.047739072870187 -1.4563926547741466
4788 3.546373494510253 -5.882884757524519 0.40398125886472547
4815 3.0112019646564363 1.5155241735886165 -1.7668031246707736
5038 -1.8331580345471974 -2.202822028715173 8.94687566388622
5073 5.422245876549206 5.276943173024656 5.227949897414663
5042 5.0501637256043646 -2.41435972875887 -1.9889753782776451
4787 0.5414288344424756 0.39433205315179354 5.760557090857278
4819 -2.4065096219999957 -0.002868661910400798 -4.2339763030400475
5044 -3.497122630260129 1.5047223470714859 0.9901792786161989
5039 -2.908385641549046 7.129592475110882 -2.268362494545934
5071 -1.8356561347858977 5.269141290287303 -2.5455953726779086
5075 4.16625238153859 -3.923346482589757 -0.615885006009123
5043 4.651038351221021 2.3588993945764414 0.1645619997966807
4789 0.13983398189842614 3.9873311912351865 0.7092502072201723
4825 0.21339317397036245 0.6856333651854783 3.4385497404902092
4821 -1.392951781465551 1.2281644737772353 -11.333955178793
4793 -6.681309311941639 4.438630760680438 3.028704133631749
4791 0.5038028481257621 1.1370817199054946 2.0176633289081933
4792 1.5207082508678536 0.8393826729169628 0.3544006549344837
4796 5.472461189970282 -2.121063495939613 5.622333475855061
4823 0.29248657807019685 -10.20917374126755 -2.046598401239229
5045 0.29093693409286536 -3.88694343086652 2.5633526091150296
5046 -6.399183339090604 1.724163051799233 -1.8843636814897307
5077 4.375003040204726 2.2842356300588693 -3.560173768329099
5081 0.6462016138767636 -8.212580088843382 3.8369647058229015
5049 -9.195009559355286 -5.932093838896982 7.314522955251525
5048 3.8820194847541702 -4.616623024009169 -1.6324543465859405
5052 4.343667350326873 -8.254144315099007 1.589314733845257
5079 1.412295485125571 -0.3417055490809925 -1.123671681666836
4797 -6.263742837030106 0.743163557535033 2.171955577620789
4795 -1.1063810995420247 -2.7698656899324603 -5.836237407898479
4799 -7.034217678304596 -3.5205777875697177 1.7991086165323003
4800 2.1393592105453503 -2.046725742771149 -1.9763165500288764
4827 -4.796480581609746 -3.6397763405205694 -2.0147278751446343
4831 2.429283486076459 3.5317654015300497 -7.222038624216858
5050 5.618865012197089 -0.1647518806072243 -4.013459632609805
5053 4.925674495127079 -8.200917785253452 -1.8482348382187919
5054 -0.7134770113259711 1.5059549544087751 3.837754037954005
5085 -12.237156000416146 1.6738497450372942 5.76884190418856
5051 -0.5500000995655006 -1.8735359678832304 -0.8618896516622967
5083 5.242613045460928 -0.9404979664805078 -0.6219507859490045
5056 -4.009218135340794 -3.779099297178094 11.767670791552723
5087 -6.191828474114392 -6.818309679003151 4.5911675386714705
4804 2.0894637649244308 -2.839646156957431 12.662748248919224
4808 5.353073819646358 9.181298937455665 2.6650994081152493
5058 -1.6061284891413314 -2.8361233392611207 3.6350398751014836
4835 4.849459096941897 1.1183289725353511 -6.4491831402704305
4840 -0.42895705552419683 12.17464171931208 3.3292762554520645
5090 -0.21280082652974827 -4.458293379637971 -3.0050835699341136
5093 9.336488875459924 2.0846495978372985 -2.10529736069214
5089 2.423417049415442 5.4450714094994 4.149338918190099
4836 -2.551370006729528 4.807241127812781 -3.0195008402137504
5060 -6.315579113208353 1.0355426930659493 -5.490195588180484
5064 -5.430157856376826 5.935576285621309 8.191117953371116
4838 -1.7243500180741418 -2.485722104651493 2.8334570107889125
5092 3.3834323770701764 -0.5766933574271942 3.117222198330613
5091 -8.215000364317447 1.1295478786424238 -9.044127111993499
5096 3.553100061572497 3.898221334509966 1.762650179134988
5095 -0.8057477441257159 -1.1355021563944339 0.07142628720180581
5062 -1.8263959619502304 1.357694997623144 6.889222697784171
5094 3.580125024026059 0.9234236797591459 0.4036864094739183
4839 -3.2093969731647594 -2.5004657250409026 2.7878776193755845
5066 -6.361939720203035 4.206784052387084 -2.7665695358028355
4812 -0.21348967816324335 2.3047533502375765 8.714510270336628
4843 -4.233126118516669 5.559761634812258 6.208406426600396
4844 -0.6895572645770547 7.111172599655651 -0.38431532285845355
5097 -8.67963350341171 -3.707710020854847 -3.6709614403941244
5098 4.7425172644455005 1.9902047995051995 -4.460086021246399
5101 -2.3728857936630594 -7.173398184810001 -6.210040349092459
4816 2.7651572725011784 10.825908322926363 -7.720039154839761
4848 -3.8228535380371453 -1.1382469038126675 -4.033838292754821
5100 -6.070112946848043 4.781817746514483 1.2393610975938425
5104 -2.594576694803557 3.0155106681705313 -2.735010418241557
5068 6.897238570872463 9.972814752904762 0.17510450195759528
4846 -2.2443596006265913 -2.6770853579424787 -4.285309414575461
4818 0.750599797815392 4.6008921776162985 -0.3336994045518905
4814 1.1837893086453977 0.9399377099198741 -1.2064791080217099
4820 2.096903991325816 -2.478619737223854 -7.375083849556424
5070 -3.067052282288963 3.878976741783607 2.1810760496493304
4847 -1.0295142292788646 1.3659779045851357 5.116020627440185
4852 -1.5217564376709949 -1.423674887006291 4.917149069849508
5102 4.655222355751463 -7.410333689986409 2.1194572056575316
5105 -2.799763446807534 -8.792048135087114 2.1870188471162697
4851 -1.1563856707362365 7.122882384494015 -5.680044715765938
5074 -2.417765648154586 3.5643829023112943 -4.539907585866721
5106 8.056763192044029 -0.7010143662927881 -1.5535045732422346
5076 -5.430661663163015 1.2739695333056549 6.603522495559252
5107 -4.289950462440049 -5.429113723852052 2.639095635112085
4854 -2.1554605308067227 -1.5277264907717967 5.530183276099443
4824 -2.4650241685973113 4.818645246504745 -1.9987657494927165
4828 -2.5486474383034317 0.9581740695232727 -1.0133333901534165
5078 6.193313134043986 1.8547015817841443 -1.3433269609623282
4855 -4.865828787882997 2.4896858668421644 1.2952408878629666
4856 -1.1662115635931936 -4.115558136585578 0.9086610841106771
4860 -4.998599621189567 7.627433159134059 -4.912128673619831
5109 -8.032785041150197 3.37107100156205 -3.0340214606708407
5110 0.0325519009909527 -5.666740790555922 -2.8045644146036612
5113 -2.3572851367058987 2.248801738281158 -4.533043945319134
5116 0.13238515791820726 0.72455263451177 -5.146102151704765
5080 6.36174546169949 -2.3822421643688316 3.479045285306335
5112 -0.2641474799344421 -5.788265597875696 -4.778222048322684
4858 5.5824317679072895 4.8337645691486335 9.323932852437387
4832 1.7773929784799665 -12.235136529673412 -8.419947631249446
5086 -2.386503866186343 -0.6256710729635204 -1.3769735447189315
5082 4.146125967015432 1.0426591709105295 8.043026966557562
4859 -0.368445078896597 3.5026142630940824 1.0241047333705988
4863 -3.9756209364444826 -5.12579785292261 -4.0072083624334605
4864 2.4278977787222358 1.8444717803163981 -0.08053555720626397
5114 1.1400597163160788 1.9869028331709218 -4.099124948718879
5117 0.8875576504428834 9.907065222348825 3.240074245276576
5118 -0.6043492698117425 -9.97370806582681 0.42217242684664935
5119 0.6193710623983879 0.05227436846579303 -1.667337593194741
5115 -6.7297150668823615 2.7655786907654063 2.598371009460162
5088 10.12263739745325 0.5653969071928804 3.108436685679522
4868 -3.5504234807232846 4.573926712307126 -5.654812355174274
5122 1.528209715947206 -0.46512928336569787 -0.5476573653468418
5128 2.1821336677964607 -3.338599818619222 2.1559142660136765
5155 1.1907984795281148 -1.5522159737953223 10.085729807653598
5157 -6.742238689736592 -0.36211276767133105 4.99839911617457
5153 2.0496255569792474 2.36572023570689 -9.60714692429879
5124 -3.793528878525958 5.840709288652871 -2.4407062767168246
5125 0.44684413778057086 -2.796910596907034 4.3215349849926925
5121 -2.8361113183649125 4.177954377789931 2.6268139716427674
5123 2.1081981733864277 -6.690097227208245 2.71338466522281
5378 5.743127827047181 9.000724798777995 -10.686403800753276
5377 -2.7914272094659647 1.6019891351879658 -4.417781364057881
5409 -3.1025044686503587 2.0880312444013662 -2.486273459823556
5413 4.113076444943624 -7.884120132147295 1.0452470413246917
4903 -7.4521165741640045 0.23130557435364754 0.09676981525555467
4875 -0.5964316345859662 -4.066957238477608 -0.6265606540887944
5159 -2.6298142887351093 -3.491548058958156 8.709706381069662
5382 -2.175738537576805 -3.610852087649729 -8.534046258229996
5126 -0.25937586490509584 4.133545703512986 -6.339976389016145
5127 4.5796239954342175 -2.052867129789362 2.7224590326704328
5130 3.459730505203328 -5.138827316709018 -2.2565438696117477
5132 -0.14204206566484867 1.7580388466463686 8.307798810106313
5161 -2.618053377265841 0.27127157349282527 -1.591891751980302
5163 -4.259409059326503 -5.612203148583235 -2.142734729275083
5136 -7.673417502941447 -0.4297428681989839 6.010608895805383
5165 -1.942382209280546 6.030817584294789 3.1990789457482136
5133 -6.465010000938153 -8.357050222226668 -9.389002631738878
5131 -4.455144224395643 7.048852105526109 3.4797538746607852
5389 0.33049321443290736 -9.18490992284182 -3.6474024489045336
5129 4.032992362928398 -4.475805923782644 -3.9089185359013
5417 -2.7838522219040955 -3.4211190942483696 2.7451079748724956
5386 -0.11334479174250475 -1.0820519411262535 2.4952131582344905
5418 1.6214542101912812 -0.6431891480292057 -7.817009575899801
5385 -4.554453790593778 -4.60476712123182 -2.035705236811968
4883 -3.156318817320617 0.6810919817728814 4.343864904074494
4884 -6.360426121605515 0.17788590652793554 1.3000055244786461
4915 3.621926678367408 7.218850476099337 -7.982588439441461
4879 0.9186150130644065 -2.193111865512206 4.7788151624830775
5134 -5.388098877510106 -2.8199432949451273 7.620116060204147
5140 -1.5301010461575686 -1.4096739190284193 -1.4008013829643267
5167 -1.3153912077431533 -4.47572579797722 -7.255166316625822
5169 -1.5513839410147579 9.567358334197154 -8.460555689645973
5138 1.229880474189709 1.1823722960171483 -4.33971220183751
5139 -0.17918532579079616 8.292658669596848 -0.7223590479038609
5171 -1.2783398949238334 -0.07611354220409276 2.0868372532068302
5135 2.9186876887486406 1.0670837517571004 -4.743365489093467
5137 -1.7265378410833145 -6.3497411329596884 1.4573615867369822
5166 2.1196615820968403 1.8209700598378473 1.9508939023370235
5393 -4.862069929688148 2.91167114016225 0.20176984176142557
5390 -3.953340484272053 -1.305130228441861 6.742829069788264
5170 -3.3498838409766374 0.46575107150055595 3.3066451298926274
5172 -8.753780986273014 1.5160349854565662 3.0338661151470396
5394 4.870642749137442 -7.197783029530792 -2.3155719465303104
5425 -1.4333667839634827 -4.692030303272638 3.005662527954442
4892 -1.1855410583288295 1.0248559102506924 -4.386336970042883
4887 -2.9678377129947724 -5.306549226666185 -2.65675959185281
4919 -1.9110348705253648 -3.9988685965441793 0.47614400426093245
5142 -0.6828591293336732 -4.3685703366035895 9.821096563171269
5144 -3.7178675659266247 -1.5892105211090342 9.162809556289654
5173 2.8611703176252785 -0.7253887399364805 3.241899008918186
5175 -8.390807899017267 4.322325795399878 1.2054056608754609
5177 1.0247307601467577 -0.5655581067002586 1.6034302104895837
5148 1.7991746455481676 -0.448678505010518 -6.645076249294055
5145 4.451832000060978 -2.0246264718209157 -5.405309004684938
5141 2.411786549848952 4.722612049991091 -1.113247602079998
5429 -2.4655632245508663 -0.7469247634408843 -3.83698384695648
5397 -1.8770717520453863 -4.625313217236068 0.8868835022620422
5433 -6.577359610251465 -4.893170800642633 -0.5348794526118771
5398 -3.4888401918143526 2.942310755536877 4.268256000832371
5180 -1.333376972302758 5.116058647075267 -8.561410727124692
4891 4.392859132871321 -1.2304356500123148 -5.674945974829262
4923 -3.34889777133083 -0.9045034317012983 -2.4719376354067903
4896 2.6345517594962162 11.479684710386595 -2.5869141774520035
5146 -4.376763529506982 0.7734187712592449 4.786563961412508
5150 1.362801648986896 4.913663855640352 9.304347458297832
5152 5.430484709371118 -1.2533425041592432 0.024501061554394077
5179 6.085636621659328 1.2890638730740833 5.271482889336538
5181 6.73318007264324 11.568879629039104 4.957478330852142
5183 -2.3689591973925985 3.7662260549471323 -0.7239206270084148
5149 1.13045091931013 5.365925677095368 0.08640138975069378
5147 -1.7614627235758782 5.265289440428052 6.533824463829079
5151 -4.926901782501276 -0.050833658855476166 7.894201513363246
5402 -3.5301749538311062 3.0137470487484435 0.4256655401824593
5406 10.485947566293941 -3.987721591141052 5.199165599432509
4900 2.3063434375496246 8.68347594385052 3.8071568916890297
4904 1.514634779481019 0.5001397060435413 6.281022967983152
5160 6.092339881600332 3.886165860435135 0.816067507703576
5154 -2.463685270960295 7.707409808481524 -6.0630495728319564
5410 -3.157400251819368 -1.4007140136202647 -2.1161889436769235
5156 3.6116223787248014 -3.818275304619072 -4.210670302945086
4932 -2.6497356146474615 3.203428078440787 0.4009425807999283
4931 -2.8091046282501133 1.7092803483291514 -2.1534373807466762
5186 6.134597008403998 -1.6931916263822475 2.821169806713071
5187 -8.567563078119939 2.383850005300328 1.8074425115832964
5189 9.209971436687368 -1.2934049695420948 4.269556446285207
5192 -5.2561098852161585 7.627685631563148 -4.83239604154061
5185 6.906882341836208 3.9947051275226775 0.43116622086842005
5217 5.445497746861489 0.628207430552752 -0.0924436877540617
5219 -8.249834208278799 1.2198436008608793 0.9585686502971262
5188 -3.000308150208258 1.7489327859623334 -3.0955562118082445
5221 5.199251821934641 -1.8526233166063 5.647811091256752
5477 -1.1048355896383941 -0.5985419388769885 -4.8355618202993265
5445 7.600437910590547 -0.24257685719637548 3.9174046920577243
5442 7.511892660506256 -0.13494677252106882 -0.7139270452042107
5441 -3.2996385970840802 0.82275189385231 -2.6221987128941815
4912 -2.6630385205927634 1.633946150118267 -2.3444152622182988
4939 -0.2749607018152115 0.24084496236532463 8.073083890429702
4944 -3.8623035087005486 -0.14416120593449644 -0.07771292315819485
5414 -1.0844849095093763 -0.4890812164609133 2.431440258624352
5158 -2.707638764413381 -1.5061526768293718 -1.9684097548100583
5190 -2.060411791557662 -1.0185133353769482 -2.128423140946123
5164 -2.127045058970816 3.4735767198112084 3.2439492660441207
5162 1.8850167431316556 0.7689169788971757 0.9449826297541414
5168 4.141426514153397 6.4950801365632485 6.81223098018383
5223 6.242722151224273 -1.1544714889619612 4.062996969694554
5191 -0.8138674169567991 -1.2038091323193776 -3.469274797650093
5193 -1.8417727146503382 -4.300508781956028 -1.9650107899341225
5194 1.7058976149217386 -3.9152622622671793 0.9153642889853773
5195 -1.7340429021087245 0.26426623647702946 9.824498731004779
5196 9.397722892440747 -2.786846608367248 5.125759813380362
5227 6.441325491939065 -3.366420191735455 -5.556157726614466
5197 2.8670656037095816 0.3137206363913155 -1.9152478312443821
5225 -8.083685302371459 1.0641542804141932 0.28463128174228114
5453 0.6165305087353986 -5.438966669283185 -6.891098365486882
5481 -2.4172941984649423 -4.774833569389597 -3.827596689021938
5200 -4.420395281174354 -1.430565897717972 -0.6041665395945892
5450 -2.972952612853535 2.570355840546048 0.7142933037552103
5485 7.887053840439084 -3.6498076227514735 -3.7792613837595934
5198 0.29260246545723256 2.571330621134044 2.213561937596503
5199 -6.817071828508162 2.4509877705899075 4.41602404980567
5201 5.091239469172327 -7.008699747990517 -2.625680079899125
5204 -0.04791383506508907 7.268331672422866 0.22170344901674244
5203 -6.503382793429157 -1.01187516023256 2.6732398457896633
5202 1.8353151150073197 -0.08658559352072373 -1.0000623050552602
5233 3.775337110906772 0.9792502746248549 6.447555594918332
5235 -2.819800436892699 5.516833274425025 -1.2322932131275903
5489 -5.627302445397176 0.44089648306307416 2.761275374137643
5454 -1.2625374725766527 1.4635649598031324 -1.7566916541235695
5457 1.7471470510252347 4.38313719663696 -1.6715120444381255
5458 0.8374592387553033 -6.30247681989812 2.5402594578383146
5231 4.022225440538083 4.214825838598668 1.6876712665372413
5426 1.0103072955674666 0.4325357284301226 1.6996160785651155
5430 -0.11398422915374692 3.1852131981849525 -0.5415214637459018
5174 -8.328949281403137 -8.872857709400602 3.1024758817534237
5176 -5.059478825571539 -5.199201284541594 -2.2354265787716288
4920 3.016304868416592 -1.0889449115401626 2.0970611790224134
5205 5.934499984498603 0.7901451001076207 2.5880437632262057
5206 -2.4566174422621336 0.4992868139564122 4.9829273052391025
5207 -0.748613723306134 0.004005337496046674 1.118259714215247
5208 1.1472484528754492 2.3450855034831624 4.010250737153841
5209 -5.041378539159156 -10.605562627289974 5.748289530512496
5212 0.16587864734135785 -2.724906067785669 13.13687058308409
5237 2.4232652240179853 2.884717840595499 4.345379625738872
5239 -3.433729536783688 -1.3508070353497825 -3.6716241161859484
5462 -3.152154653905098 1.6293751542007142 -7.003507141926223
5465 -1.8083072365339126 5.486637465197599 9.363546868336629
5438 9.281448250273629 17.885809171323572 1.3144088151956406
5434 4.8108925050998295 -0.7204203098621814 3.4069101763734615
5178 -6.525987130609169 3.5911884737212563 1.8401376849824387
5182 -2.412171527111398 -2.162625919408616 6.5947379121845815
5184 -0.7322162103428811 -1.8521492646693483 -4.804843685299611
5210 0.69545887712428 -1.665067310495892 4.216512109366336
5211 6.110032991073494 0.3199857808321274 2.0124018739318204
5213 5.821607708171575 -0.3867082592442315 6.980653811952131
5214 -0.23198644151512673 -3.4947980015019096 8.594899976563363
5215 -0.3098753565283099 0.7847544872250256 -2.3703825239247314
5216 -10.907266542363603 -4.552881382570918 3.203946330592653
5247 -3.301388058500843 -1.6402435784013412 0.0856975854978981
5466 3.1233387869074503 9.570420661160435 -5.288356502562318
5470 -7.716998462804197 2.0576113920352013 3.587948929418585
5469 -4.349500043953294 9.416284873567259 -4.335013935593883
5243 11.826609272213437 -4.872833284758095 -10.257583103390367
4968 -3.408578343094663 -0.4423819087361029 3.9580470443557587
4996 -5.303793004017467 -3.2032089836399913 3.9696351438407715
4995 -1.8585880830721482 6.70417986413249 -2.9874819706461784
4999 -2.6104294876851624 1.447708226377843 -3.9742956453840637
4964 -8.644658440107476 -4.811287424809153 -1.1147082495841651
5218 -2.866951941233501 -6.220666213767473 -6.778016312172628
5224 -5.985506450080449 0.9739488333046684 -1.433161149624603
5250 4.10203169120411 2.06784662817734 -3.394960088626071
5251 -1.8276535362888113 2.737051806140445 0.9285583909138272
5253 1.2381475246489586 4.824254289643734 0.17565246697271308
5220 -2.7327254317065863 -7.903268045246214 -2.242313652165079
5252 -5.744539949672396 1.3616564494093804 4.477058840680728
5249 -0.1791825618258963 -6.349458097630631 2.570208488791357
5256 -5.215945786755958 -0.25651903736229265 1.9658003011378788
5254 1.376962215091255 -0.725228592684224 1.0414014193798322
5222 -5.648316922380195 2.7115656311457284 8.385552541530139
5505 2.9118416508271547 -1.3740321625181409 1.5073768869085833
5229 -9.653117763233288 -4.925469410252451 -6.353318106172755
4972 -6.282558444424765 -2.0178079849206005 -2.8517755838903995
5255 0.501390339433488 0.5043547540938605 -9.19928665553386
4976 0.19284852430050242 3.7896813806285383 -1.5850748616725239
5004 -4.733940342426572 15.41759053497903 -2.017900589707488
5003 -4.830559171254218 -6.1793271351963375 3.153166888942937
5226 1.2342510062474241 -5.690059949131679 5.144670851947307
5228 1.3858133464497244 4.031147829258693 0.38535711250975335
5257 -0.21380874997194196 14.859768214568971 -3.855681587872555
5259 2.1635313749905634 -4.196029115106061 -4.544375976420848
5260 1.0077653234948254 -1.020341704712521 1.1466813074560194
5258 1.598899963056243 -3.8250834038438772 3.5834386728704515
5261 -1.1552220671562705 1.4320605204809775 -1.1854058551801092
5232 1.9089607967398081 4.042024512807692 -4.200400973809073
5264 2.57948592219465 -0.2993947685053288 -3.3099142485616664
5517 0.20825915360050354 3.111193651280243 -2.3601440383760903
5513 -9.987432862404967 0.9798467649841112 6.401281564523597
5482 1.7105281499361136 4.724922570273089 -6.569504068103738
5514 -5.464889362724642 -6.461023135641276 0.894723179447069
5007 0.7306172931297842 3.854048929991288 5.203396547348499
5011 1.1166000442224953 2.0594106804297474 3.77688777364998
5230 6.383395309835406 -7.042848048407932 2.5818474175488415
5236 0.23117990167100622 -1.0545148828763762 0.16817850857546945
5262 -4.899470292450705 2.0208026488220368 -2.323406502285802
5263 4.651763576304713 -2.7723456907897117 -7.370196346309395
5265 -3.4855191230854126 0.6820380901694402 0.26914493431728337
5268 -8.654076542935787 1.9405490776878476 -2.2815073158671813
5266 0.45301262907334505 -0.11161001274155621 -2.561403235744757
5234 -4.802143059067845 4.277597545582051 0.5396130028308955
5267 -10.217905283607665 -7.485269208351658 0.4724578837810367
5486 7.445321000567281 -3.9839447537526684 -7.8262931060912
5521 6.26902502504496 -4.348308699785689 -5.1995718563018505
5518 6.923416857232949 1.3011964407979495 3.067682644455513
5490 -0.6459978097369545 3.4306488764779877 1.9609116643938855
5522 -0.17408441506904618 1.2780435664652254 -5.640543537282081
4984 -3.7419201848160153 -3.3760469390759043 -3.9915064833706193
5241 10.728618940138466 -1.123597067055028 6.460401878383425
5238 -6.70750494040968 2.701106903442166 -4.398085229529418
5240 -3.800378910344561 3.5403186930705943 1.5030433046558862
5244 0.9291355982217486 -2.342870227330653 -2.474405271367879
5269 -1.5658344622629812 3.026901850786681 -2.806666347018887
5271 -7.462232484737258 0.301010609965114 -0.814604271196149
5272 7.731808880106261 -4.833891678074046 11.506077242596852
5273 -0.536582565212181 1.6876033993868726 -1.0579480522221196
5276 2.284841249603803 -5.224960036050282 1.7404915243803638
5270 0.10519593675391538 5.499924811600232 2.329184649125988
5494 -1.0435322110484901 3.934978963533467 3.1989335331597637
5526 5.904333179147147 2.5286244340436226 4.587024146508794
5525 -2.8159484772711925 -0.3325828230620017 -0.3764674299015471
5529 -11.782763069654068 -2.1144802960029137 -5.895900564827713
4992 -6.015671333800552 -1.6444430031949608 -4.695269522307835
5245 -0.03861759315270028 4.77881724059858 -0.6295052829020844
5242 -4.201460967683784 7.095335022836475 -9.312533717370266
5246 -6.26354805488056 -1.212109238164081 1.4944826475875848
5248 -1.3764420997675029 -8.119788703169485 0.608915859505787
5274 -0.16163334927115697 -1.9580622167587038 -2.975893203724062
5275 -3.9731654639942886 -2.8192239524159413 -6.903835956091632
5277 -6.459706971503024 -0.16670675512478894 -12.114343796692244
5278 -3.0409804937278295 0.9704522495512087 -4.293542457428546
5279 7.771359237888268 -2.80606674816407 -5.234151121886531
5280 -5.255802712314489 1.3761524981807531 -5.173445110978741
5530 5.075767892114059 -2.6859118339268604 2.49344159904439
5502 -1.1675757946102305 3.2531072718362264 -4.39893729201084
5533 6.008139686394559 4.449666826987609 -1.1344939808881893
5534 -1.238252880824278 1.868614057385352 4.300594765458758
5032 3.6032528676090054 -2.9767525138483784 0.9519286495166127
5027 4.584247686338153 0.3654781987201172 -1.9739503859281942
5283 0.99265272266857 8.334324843138578 3.4315722776919877
5282 0.9535677842844965 -2.94490667441307 5.678123998327824
5285 -3.096504763801996 7.1811439721900205 2.6883032869362915
5288 2.904833379903391 1.6008218554641673 -5.7803091649825316
5315 3.3177575024285213 -3.717205459626129 -4.093358984083946
5317 -3.9146648447353125 0.42842593311158816 3.976052198103894
5284 -1.7410455507013745 3.296951634909009 1.7792772166593602
5313 2.6031499894415404 3.210985906697801 -9.725514935538977
5281 0.18704136987032705 -6.605814176827507 -7.6944308907004855
5569 -1.8370992728932796 4.8777648263637605 2.5567618240530923
5537 2.3664144037389603 -4.091555836712236 -4.298666900807955
5538 3.609083319777166 -1.1967370431009527 0.8473567327632638
5031 -2.931620130457716 1.668704656788873 -11.294380656747927
5286 -0.3088540858635541 -0.3842952384332473 5.5248490960312315
5287 -3.1721328599404908 3.7477629995270543 -1.3984045593070764
5319 -1.7371659878116608 1.045852277165708 4.3630866193618605
5067 -1.3802052746162485 6.652762381066109 1.3108322519497713
5289 6.176833496240685 5.136400948935972 -0.9610275985986488
5290 3.2879798040201407 -4.8758602720335436 0.09294981293566912
5291 -3.2615272179054386 -0.598983122657577 -3.803502013104758
5292 1.335619441075561 -7.4576292574351974 -7.205815461529477
5321 2.268204733226368 -3.939048832182732 -0.060536840464800984
5323 -2.8226019008426615 -9.80192528119879 7.801914087260804
5293 -1.6159061004117745 -1.0120123526665576 -5.736922441995268
5325 1.7513558441335624 4.573902737014585 4.009384810804386
5581 3.783820260601076 3.418052600130699 7.433474640702434
5577 -1.9906154718060074 -0.04210931006289956 -4.119406958059574
5546 1.5033583242298982 0.5092014313365566 -3.9950145957623966
5296 -1.095399204859865 -1.373088681560302 -1.9085230365037298
5545 -0.20894718500125437 5.055018012962593 3.4082258532882084
5549 -6.424381936228155 -3.9176457846604205 -6.981481873785914
5294 -0.6415741543658171 -0.3497691989440446 -2.3161517621421774
5295 4.110778794640707 -0.6059544819270514 -4.78877722724782
5297 5.689592858956935 3.575469352835524 0.9770253037913514
5300 2.7271886196889805 0.7910997564241882 -0.34537936263479296
5327 10.541351061503837 -8.350004219640752 -6.996370926095904
5329 3.6658189780800545 0.5638574374116987 2.965648700175729
5331 0.34678556858986065 -5.378394233687791 3.364189392572161
5298 2.68981668764836 3.510955663294742 0.3899783984329132
5299 -15.624743573631045 -12.408106488648086 2.37861187964311
5554 6.027502642476953 2.2573369575953905 2.048144092570462
5047 0.11969590011088516 3.6686429737136708 -6.329975415179913
5301 2.9305764102507728 0.4027959009609929 -6.09656170499022
5302 -7.244618216073634 -1.3499611767000415 7.913852923922296
5303 -3.0694965085764583 3.3313858746535923 4.095960947393943
5304 7.393693431467553 -0.9995269258644048 0.5839926749837182
5305 -0.15929640393560807 6.385210351379696 3.1549172272466484
5308 0.31489858893560896 -1.6952181942498425 0.4327621167809596
5333 -2.1912011532728863 8.530911923590741 -3.836717923220448
5335 0.3023469641041661 -0.3337344169345632 -2.3543599007098925
5337 1.5411844764836014 2.5917055304702723 5.19012116229897
5589 -0.5149888061647399 -1.0898401926867394 -4.1877963430272125
5558 8.41322323609159 2.0617409447983155 5.970813719202262
5593 -2.0903776411786033 -7.606726770445734 -0.5489380643528576
5561 4.1606954416069915 -7.859447562948439 2.7572145792359106
5055 -3.698595824695534 0.6066348755614012 1.864733919831334
5307 -13.807775917307454 -2.6057321099752064 -3.277830800037838
5306 -12.399752607265519 3.6091803185781006 1.7818722579868749
5309 0.16464825751400045 1.1333106037002931 1.251655738718916
5310 -2.8233658268641277 1.1784546423598057 -1.0820750499996583
5311 1.840505294529444 0.047657563411862607 -3.7258823260126923
5312 6.496967825850671 1.0600806040964994 -5.952714078837097
5339 -6.408049320827046 -9.734780516471172 -3.628555524660765
5341 -0.5237344753025431 -0.3113497946819717 3.6069363284077127
5343 -4.861811338650045 0.21561141960599 -5.39336353628038
5562 2.4993592657786725 -3.8198808328946194 4.464478850693285
5597 -1.7799433269029832 -7.61892552155268 4.632664790535119
5566 -2.856313798104643 -3.7273698200933816 2.1295042098276107
5314 2.081235970751483 -5.005737569471395 -4.669192376105172
5316 -2.2529958447325122 2.83459891125812 -4.813407359441958
5320 1.0118499936001306 0.6309485782007637 4.397934236379598
5346 -3.115689019951905 1.4846386034400092 5.116826325661964
5347 0.889490813137492 -1.5368492145027626 -1.4552938293460482
5349 -1.3255539077121263 5.065330213166888 10.579032761531897
5352 -3.426493256075144 8.035294873964816 3.356567124381351
5345 -2.7600769747704623 -4.688781053472996 7.547757444455579
5348 10.631623291964237 -3.460562262808081 0.07275531230292803
5605 2.8806632720672636 -4.856353748781475 -1.3978363393795585
5351 -6.050688064139764 -0.7597168955081692 2.8361063775248354
5570 -0.9669764598791252 -2.4563723869437166 4.459408622102368
5602 0.697605849802818 -2.590211711576602 -0.17247656181289056
5099 -4.299694491842601 -5.855472444337096 -3.468818612882701
5072 3.252468157858162 1.798036079147051 7.146717342633806
5318 0.010606574061308133 -1.1874113676910183 -7.493719303313372
5350 -2.2450844768725844 0.42478741792397706 2.4091421439482406
5322 -1.0784860659280349 2.362604891266833 -0.20850560645504637
5324 -4.860954340305999 2.0489554533468115 -4.976513167966522
5353 4.211930484163683 -2.6062413502352126 0.7627640471625532
5354 -3.142771703584068 0.3329342185836684 2.3679250428992007
5355 1.7260939263738306 -7.41089629047493 3.169347083979118
5356 -2.189094879084403 -7.7253520191077145 2.8526983098252297
5578 2.0543011588324203 5.997206358315649 5.14426909891355
5328 9.456602561961505 1.8962522617364646 2.645767786325939
5609 -13.112495394856834 3.1466143220365552 -8.297181698127085
5606 5.606606187255877 -9.849816937191678 3.4884866608215104
5574 6.471129701683064 2.164838938017847 8.696891089207266
5103 -8.090513272747794 3.469437748645531 -2.5625561095993685
5108 5.0002813459206665 -2.686656859756023 1.7618071284653993
5360 7.849649084179732 -0.5162891697285934 -1.1056539133938206
5357 -6.064355614889146 -4.044556025797857 2.8334360621565158
5326 -3.871273158712147 -1.4959777217668924 -0.39876554414014886
5332 8.35724444165759 -7.0274416866345515 -8.451238001782261
5358 -1.9626447646866378 0.7788776242720462 -3.120498236153011
5359 -2.2034037230443397 3.851571754129766 2.02082983145011
5361 -3.9988296282406255 -1.342817310950649 6.897550306940625
5364 -0.040035766151607366 -2.2953846365585764 0.39162921391754385
5362 -2.254503665253501 -1.662671344142771 -4.776782756634661
5363 0.8604975763275897 -4.9894429767632635 4.06221343483972
5330 -0.3292707015551458 3.3125681900054342 1.2750219411870303
5586 -2.6844994505630155 2.7460479370576447 -2.6042753604572253
5618 -0.7543651264381674 2.4009645778047757 -2.288402602311236
5617 -0.4257658292611857 2.880652622365824 -0.6740767932661669
5143 -7.76400229557565 3.216047634558147 2.663551873882725
5111 -3.3891783325878166 -4.829709902811109 -0.15133598758974973
5084 -0.8294881815887586 0.7975446092725251 4.700533704940281
5336 -1.3216709068993107 -2.695580200843741 -5.548374678426696
5334 4.258042930312939 -3.856785448386739 -0.4526937073066718
5340 -3.5863239036682 0.8743215454701285 -2.8654875548084884
5365 11.66290227191092 -0.9671026260903096 -2.7489221033788676
5366 -0.6245132288003012 5.884877311778749 5.4790755713170185
5367 1.9224309658074095 -2.6049363505882286 -0.5089606403871021
5368 -3.7156858564286304 0.7802767316458471 1.1376109806508554
5369 -4.110780111967892 4.794338806236528 -2.0601760576836523
5372 1.0480741638687727 1.880482362686823 -4.948027537555551
5590 -3.6849367719588337 3.6878316506610265 6.031135493266425
5625 4.384867143361655 -2.024765561672423 -3.1204094598168033
5621 4.552219322573095 5.565505885256112 -0.08184763832080677
5120 2.204855886639211 0.11275065171728504 -7.500432291542683
5342 1.062522475274753 5.305421409960126 0.2165047603407176
5338 2.434282766228652 2.7709053344431727 2.7466434738218664
5344 -0.43898612143625754 -2.887141927584691 -0.6338709359881476
5370 -7.2800933349494015 2.7074371952763543 -6.265558243024276
5371 -1.3712769149169257 -1.776200324237542 0.8586831886295884
5373 4.165892261661342 3.111401652822826 -6.658552358229466
5374 5.726157839373672 1.4574061873187536 -0.17082395337521744
5375 4.410344655430519 -2.9273306225116142 5.494416502739591
5376 -6.910915174223262 -1.3629236863296306 -0.8170115479843743
5594 0.5832486757203394 -0.9853339915065737 -5.444011839901528
5629 -1.2933784753631716 10.077734561331873 3.134141234417226
5381 11.84440248887834 -0.09702977852584682 -4.5864913310044075
5384 2.183280283453721 -1.259879852180446 -0.8866761412485301
5411 2.8088716085088663 -3.009620470624959 3.005012028110561
5634 6.176392486699708 5.740457600931919 -11.734573511074915
5669 3.2938028885431123 -9.594744590513555 2.459072240268495
5380 2.296462024921821 4.413229814640076 -1.2917541873000138
5379 -6.522682921578644 3.884110129105735 4.922067067759438
5665 -3.071676262711434 -2.294236937662225 -4.645339530611473
5637 0.7010648337969569 7.03603128567229 2.3722923255852972
5667 -0.2099999359673804 -1.100300518604217 -0.040891151065959294
5633 3.8481362138713715 2.0170578664734564 -4.675313721120884
5640 9.372556009319439 1.864186931016922 1.3429832668898547
5638 -1.9097935967702873 5.404162949190514 1.3941524621791377
5671 -1.666453903602623 -1.3159133838386632 -0.02390723599649091
5415 -1.7475395706530308 2.3359780686502853 10.590746553506644
5668 3.5938546590452067 -5.650086095526072 5.488248744148149
5636 -2.2491190841345468 3.5487696012514824 -1.8422975838628635
5635 -2.769006488702394 -7.394859544366616 -0.03679707674160773
5421 2.7575369335037467 -2.043465270478655 4.868253146633814
5383 -8.904395922070622 -0.07144565750142204 -4.872021245329958
5388 -7.45736790365185 -1.0452197463594917 -4.083712510682937
5419 -0.4558413909031562 -0.5372182007583334 4.613416200330621
5642 4.258875156440918 5.572296017453537 8.678696730326624
5673 5.145848761045921 4.830736616892065 -6.294170401820146
5677 3.262478515570067 -0.27669404316508134 4.543612741974741
5392 -0.5256109820202584 -2.371470938810684 -10.554809411216718
5641 0.9252920906648091 -4.221307936905038 0.3491283837792538
5387 1.4742516266295898 2.626199035392943 -5.0867969359356255
5675 -1.8215426296444124 -1.7250206047570609 -4.5664051726349175
5644 -1.7046898641729475 -1.2099051611001974 4.825679302020273
5639 -0.7768056419468434 1.9087222053987318 5.435322172916421
5680 3.987447488528906 -2.3845856987174185 1.4810391238769876
5420 0.5182730972936698 -4.117176184366151 6.233115912984906
5648 -2.378943643450881 -5.943308288414888 6.8978742387000755
5422 0.8057590682726709 6.017617008822658 6.1186997376918075
5645 2.33465428698948 7.533568796136844 -2.3777561662041187
5396 -5.305058122989185 -4.211403552335975 1.7682725709348237
5423 -2.4844588573112243 2.1515918469469217 -2.139045281299013
5646 -3.084879127700875 2.733789944298672 1.6229739117823612
5681 -0.6419174826322616 -0.2271216318479286 0.6750664286282864
5427 0.2574957041397772 -4.324308423710621 -3.8377020143122915
5650 2.908497225363756 4.3032736640489135 1.329209921318156
5649 0.6695556465479551 -2.9730304465377753 4.595060983977232
5395 2.3397456905644347 4.768338978898745 -4.246897203723956
5391 0.3748118945936254 -3.5100598460209484 1.2670709038985084
5651 3.9934879211078287 2.2266756625946362 -3.0814053603042044
5652 -4.893895408214978 -5.707557478938443 -3.8692700445495314
5679 3.6143926547408647 -3.4984124960184904 -0.8270932566497231
5682 -13.521536549774 2.8164707831899807 4.781480532880086
5678 4.800207772837334 2.5486332687395468 3.6420613342887846
5683 3.706457933134941 0.26271357432338216 -1.0095437935601952
5428 -1.9158662293126902 -8.687847565013353 -5.278218388666371
5401 -0.7931164769889906 -1.2688375530783635 2.062355410690733
5400 2.2025378255091375 -0.021073982593624082 -11.580882414514933
5404 -1.3547389210788947 0.5083515590500344 -6.834379362992722
5431 5.589916460773069 -2.8034882683284117 6.556283731580828
5654 10.175513284837278 -6.580269547230386 0.32337957647383575
5685 -8.488175884583114 7.28348009718438 -6.816683156897839
5689 -0.09136345776228136 4.2389572295291496 -7.112247134983592
5653 -4.568633257379603 5.056704773091459 -1.2253906283592202
5656 1.7074235835612417 -2.5739888246586466 -7.787522434678959
5399 0.8954952265987585 -4.684839883014721 -8.609401923205596
5657 2.039450908430225 6.141452696365097 -6.796671433986278
5660 2.0023786270418866 0.23543589870523307 -7.697937044508991
5688 -7.607620074915236 3.4608253605926547 2.3927020185666343
5687 -7.018193695926814 -1.859674779501555 1.4734593213003644
5655 7.428194519041199 -3.6463701176904033 -0.2724866320841086
5437 2.5637590221573623 3.9658446099080447 3.1060248347860244
5405 -9.049333617214783 2.1019149900857275 -2.778757784781252
5658 4.855164121564195 -6.9479616201669865 -1.5890282134046212
5408 2.4580763643848953 1.386628553153841 2.111881188010846
5435 -1.6247004457690948 -5.468866149163547 -5.095145911418859
5439 4.664057538089483 0.597879921090895 -7.982682966133269
5662 2.1624735688052183 -4.282300148743019 1.833963343711343
5693 -6.520806367668513 3.8874584492320996 -1.915981004201993
5403 -0.7480896573807587 -2.034502059422854 2.908697077344235
5407 4.059175098960508 -3.456196045571618 -1.6272099457958473
5664 -6.8048072059370535 -1.3248066262389986 -1.7144517864298334
5659 -4.638666968336381 5.13891126852123 1.4886611803548018
5661 -4.963300741925154 -0.5693318035275211 6.168191966832431
5691 2.7905130460179532 2.130766570607725 1.915616651410154
5416 2.3173242777433787 4.306705762696429 6.2112882496900195
5412 -3.978065502534915 3.4215372073550254 0.8980464510202153
5672 5.897093717369786 -7.145878321933324 -4.306792707366051
5473 -5.284815757546876 0.9670972029358945 -7.324633032988024
5670 -1.2881435113525554 1.7148487800537549 2.33913315424166
5666 4.354337671990227 6.0715328729652285 2.4593881112484914
5443 -4.689354088338077 -7.861952913085554 1.170773935274887
5448 -3.4693818004360475 2.461916643597378 4.770279631606631
5698 0.06654424578732865 -1.6677640987936984 -2.6743561561513958
5701 -3.0106433867579905 1.1414821540514533 5.077939004177577
5697 2.4320706313262033 2.1590212560873256 6.896467516424547
5444 1.8603323344643927 2.5066959059896727 -3.810262161801174
5475 0.5101523949717726 3.788657295371851 4.414170634108899
5733 -0.4377961633282714 3.271638395358402 0.8091618550525858
5729 -4.20214022622916 -0.9481994843046313 0.5581170504162557
5704 2.631936787319145 -4.5196402021632425 -3.9897223851821106
5699 0.6691394784820357 -4.121676954974611 2.960330043864146
5731 0.9444114602027897 3.1515739731922734 -2.926407101957414
5446 7.068295311125343 0.49642244958266535 -3.9153919225736358
5449 -3.5223896634302525 -6.313459767527697 8.631482846660873
5424 0.4076280494929927 -0.6822919846630665 -0.8344906235737858
5674 -1.759117568583488 -3.668555135431237 -1.2860761374003287
5447 -0.8868569837792474 2.4695049433474043 -5.958366288880488
5702 -6.352526578245287 2.0396251489086725 3.6411500716731267
5479 -1.4610821503089362 1.3819448360913975 0.016349488081270208
5451 -1.3218372424044493 -2.365489454294333 7.674315798197556
5452 -2.1117276232195743 0.5199177601900137 -5.524726072272782
5705 -3.246363165777495 8.763036041697417 -3.1037928677841067
5706 3.6186243905279105 0.6430132443891237 2.098485239231426
5456 -0.8087238158976295 2.589673995866071 -0.41456286973656786
5737 -1.4917090053503546 2.372720872084703 -9.641316516310459
5709 -6.138285896538743 -3.2895934467504833 -3.675520360283464
5739 -0.7734111178311872 6.129407010969871 3.750171522933025
5741 -2.74576277196713 -2.053418150247654 1.1477456258788423
5708 1.5939951764781926 13.512507683464396 2.746667770809613
5483 -6.215422485708357 -8.577577123965627 6.07284998235228
5707 -2.788656001026759 -6.511810938701616 -0.4094570217902434
5735 -3.576105502272242 4.966543398639285 -1.98867515057294
5703 -2.60843974493201 2.46296016893872 -4.8135937059664995
5712 -7.638572099985397 0.3195513352953365 -0.4944496342127592
5455 -4.178969706670108 -7.4247157875820555 4.813286714044511
5460 -3.613622327232719 6.114270012466367 1.3453177031462349
5710 -2.611552166576145 1.9863236985257244 -0.5931602069408783
5713 -8.316903280347695 0.4168503550415058 -0.8189730125444404
5459 0.8281340461229445 5.06336109888505 0.3100126350010507
5714 0.3081078248844207 2.2542479653835823 -2.1195642947294
5487 -1.3941177212200244 -6.182455567555759 -2.7867101444572056
5491 -3.0696371181021607 4.7594033726678955 0.5345620180796398
5716 2.6730018219138003 -1.6526409588526672 4.477631780089408
5745 10.791965003365805 -4.168231969610821 -9.526644283876719
5743 -9.22042269668086 11.652257157814654 -2.222769500769084
5684 4.508015915146468 -2.0077594344429044 0.7841648695859308
5715 -3.330174029596662 0.6000625538928442 -1.2817547523257753
5747 -11.997584126862282 7.316838597849119 0.9694694727577271
5493 -2.7195876301131654 1.4734470432681108 5.607936379266609
5461 0.06455195156199606 3.798552867183318 4.330314761939333
5497 -6.529698877442762 -1.288606273657515 -1.5225289317189015
5432 -2.204600068963624 -2.589117223332703 5.548698538115634
5436 0.9389090307905171 7.227729887785277 -1.4594332446503233
5686 -4.68187995606856 3.2780848064547743 -0.8547656048701888
5463 -5.24064652734358 -1.9715787985921502 -0.10745667930734365
5464 7.113399317622642 -5.791028863785163 -1.7207608747908243
5717 1.3253877454758647 3.309717133039431 4.074544490992531
5718 -3.5947413462122912 -5.135786731890959 -4.320363169846406
5721 -3.400682919839746 -1.1141261123080306 -3.0771843806764814
5468 -2.6664703710073523 -7.360832884676958 -2.4956508626027873
5495 -4.560908531886679 -0.42386074324421497 4.809453740363115
5749 -1.6999836687504917 0.23502395480243224 -1.4977070455216979
5720 2.219342432166992 -4.829117419991878 8.642700727012958
5751 -0.3974909701648035 -0.9095545543504887 4.914456251813359
5719 -3.60395161060677 3.980890052433793 -3.796336956619871
5753 6.064843473532752 3.8246289095427364 -2.3489383395802665
5692 0.8868828160911898 -0.0643982226336603 6.5987749415577355
5724 4.661478483915296 3.5608496949748245 -5.185610206339265
5440 -1.965958897177507 6.418768537282874 0.36414551368252107
5694 2.122140382379177 -4.7962006216542346 -5.7265469928230335
5690 1.5930216484282387 2.590266686641971 2.760837324039262
5467 3.984091864982756 -6.611610648676941 5.617163601555354
5471 -1.0323806535901987 -6.104857366359437 2.193118150968658
5472 4.528241215470335 -0.4152241370106676 3.299176737345469
5722 0.9447517891861854 0.5448123683388721 1.5048821479016157
5725 -0.6136389341898384 -0.37514549783730444 6.388292473573243
5726 -2.550024888218213 -3.70567316694713 1.9012295883258965
5503 -0.707358300261685 0.7564855398435852 1.406596978508254
5499 -4.177404422788361 -0.4201586469181391 5.782958574771893
5757 -0.14229579788625807 6.11810591048178 -1.2639675327135482
5755 3.460675465819064 -3.219361712626594 -4.801005841295377
5723 5.313068034377337 -5.36220292640133 2.7571809050863125
5501 -5.753446697572644 3.6997327842882726 -2.1977343271770966
5696 1.0845755431165969 9.932995089000405 -4.844290871596825
5474 10.061784344122602 5.423255709438468 -3.140132549086921
5509 6.978129677461102 8.986246755698076 -0.2013224797644559
5506 -1.7816475549467923 -2.2005724137165066 7.777284117189524
5510 -12.493546707923505 5.0247869417408575 -2.3890717569311564
5480 8.811843268601542 -5.650377836247171 -2.921082681916363
5507 4.050918423175215 1.3583729451235746 3.36480872197286
5512 2.4434412551990268 -1.1945196977493115 -0.5529814124756234
5730 1.0312092180113597 5.200941929316428 0.2844541514244707
5762 5.19702903510119 -3.38981191712138 0.21005040150640694
5765 -0.1326878390478615 2.082452666114631 -2.6207522000608585
5761 3.2841284394194807 -1.2710047705350043 -2.075585161809478
5508 0.2959370697506575 -5.0050913659195535 0.3522470220488951
5736 -5.593507197656155 5.962566064177711 -0.8670712657477261
5732 -9.275278497317037 2.4059727570908347 -2.969279510667371
5768 0.9126430533897253 1.4892005434089348 3.0841676897830275
5766 -3.8837735494343253 -0.7859668626258853 0.8039742812828813
5476 4.276836857570147 6.817132663654563 -0.9240280332410243
5764 5.174944627743235 -10.324156792036625 -3.3301799863785684
5478 1.6587953709537215 3.227471135550718 -4.292012754863999
5767 -0.17425140600707914 4.726274140100785 -4.724651592760899
5734 -9.686901349590437 0.95662853261322 5.436622532725717
5511 -7.1761191861839775 0.8718628314190295 -1.9987052826991585
5484 1.2546300106876758 5.160159699157349 1.192926404180674
5515 -2.453505570068789 -2.9008538790598615 1.411384066472549
5516 -1.7747078869930357 -2.2953498762203908 0.4847235327925076
5738 -2.323576461195124 2.8723372836552374 -4.793974208759066
5769 2.891151746033829 -8.153532656645218 1.6104689747502186
5770 -0.5634590754636598 2.198871528359163 -2.4881504471221776
5773 1.7738024641081542 0.15937531473434155 1.9977282072703109
5740 0.948433808294177 4.889735499975839 8.493542888579604
5771 3.648032547350828 -3.9847275012983543 -0.29296333227919896
5488 -0.358009293525755 3.0730679097783566 1.4084433867998467
5772 -2.499048422162684 4.986268919650962 -0.456348596267629
5744 -0.387862646835273 -2.1262524484306837 2.4542826165599854
5520 0.46807327432340795 -2.575969881257521 -0.943346402048424
5776 7.204709188285723 4.548808962902539 16.41783920711269
5492 0.16547586271193235 -4.82947059884537 4.168094470591901
5519 2.0481320537054772 1.1072666910957194 2.5697123851649724
5524 2.1793852827528437 -2.6500763345900045 4.562055240472261
5742 -1.3061538607430805 -4.192035192518847 -1.0055547143558206
5774 2.5341170787594693 -1.6781434117112557 -0.8752388165462202
5777 1.5740664429587068 -2.819403892003322 -0.8221021933916448
5778 2.7624081274801853 -4.130507498509325 -6.18391228219666
5523 3.1815565049518826 1.2588554045677454 5.8757449887372974
5746 -9.642539761564223 -0.6224251970175132 -1.389518769920996
5748 8.36991309186278 3.6272987240717303 -4.707095913642013
5775 3.370071336576614 -2.361497484435405 -3.6745465345854704
5779 7.493015652229086 -1.3586791997967034 -3.6912086341175785
5780 0.8508343766214828 -6.043734051745234 2.001513081914838
5496 7.434309278651887 -10.784726505792637 1.1677275523069164
5500 -0.6473430991003523 2.156808378486052 1.7219602693050193
5527 6.687110205613876 -0.7843219016908719 -6.631176812459625
5528 2.5004786477877907 -9.736802943211472 1.8080068241594285
5750 5.719899210076058 1.3758333269066247 6.897904550319305
5781 -2.670747257639614 -1.7837084198769917 -5.938612848952534
5785 0.0021686504589137727 -3.404614464393346 8.95930376390616
5782 1.1554159075706276 -5.559767648976946 -0.24780099487870522
5532 1.9364110567494848 1.751649256089086 3.4425993559310095
5756 -2.3804012211697847 0.6800360415140211 -4.3705388115930095
5752 2.476527436481392 1.2301455066426201 -4.756183297775616
5788 2.754636619958383 8.82816350988514 -1.1183935124937738
5783 0.16209743794604192 -0.19382194358022026 0.49579949918796173
5498 3.846380955626561 -0.42196921777872076 -2.590429819528299
5531 -7.320783840905216 -0.41496144404497265 4.437680158957762
5504 -3.063605387099768 9.0076080513981 0.6253671985879259
5535 0.5004525974331466 2.112599208156046 -1.3345117097383516
5536 -0.6643095325294541 -2.744227867139154 4.413122254613968
5754 -1.770869263851798 2.208156528434656 -3.21801651892015
5758 -7.1270280650611335 -3.2460276192904605 -4.46807083310162
5786 3.329943956758196 3.5752137129548505 0.4053669540667142
5789 -4.161938024337213 -0.7369937214421577 4.899117896185739
5790 -7.659985393328669 1.5765626301530817 -0.047908262633745875
5791 2.453010531354707 -1.858990645501764 -6.229740498632718
5787 -5.049609326852583 -0.17977720105938608 -2.541405883054179
5792 -9.999864493324218 -6.059093649491771 13.299696065066842
5573 0.3731898576509776 6.159810212672545 2.19134935822753
5541 -4.743597525811215 0.26634601175102157 4.142081131146899
5539 0.40640266929970953 1.0862552517552913 0.2875843906015686
5544 7.364824335208081 -5.161469862015363 1.682226315520786
5571 -3.1360765458471733 -9.19970814970273 -2.546608612168783
5794 1.6137846227438006 -3.1627103448282368 2.7363440977679034
5797 0.02944456198121144 -5.564570649134062 -3.5482419554154316
5829 6.576814620029022 0.06323637915198754 10.137348161844313
5793 0.0846315866875545 -1.0056949396481882 2.1017078070015716
5825 -6.047709434433428 1.33461012097152 -2.313004426037132
5795 -0.48693094726304154 0.9411046848703014 -7.828165163731853
5540 -0.20054618740963145 -0.41956057867565955 6.277635233894884
5827 -4.500556288111592 -8.868706646507162 -1.553332764842886
5798 -2.9759832707267355 -0.848919511209252 3.9506969065429023
5800 -2.1913843642386155 -3.1614027329633827 4.591336119063324
5799 3.6382776505347794 -0.6365082775063325 1.370446403732153
5796 8.733104875946921 1.0678510075064256 -7.484417005952848
5543 -5.693250566941993 0.040923653387288095 -3.578432051247889
5542 -1.9157212501716359 -0.30068579149229746 -4.612489521912986
5575 -3.3916103242393616 -5.848557398209494 -4.404225560796934
5547 -0.9927902196635446 0.5660380604165249 -3.5417541582044283
5548 -4.90743057856155 4.370871074264617 -1.5017686427221855
5579 7.340118609915745 0.9914659599025889 -1.8454189495756583
5801 1.8253397034665075 -0.33728842548844373 0.3570604387824208
5802 -2.2549310668697125 -6.03255618247004 -1.2850502430615294
5833 -0.8668286118360214 0.8074236236364842 -2.227852159139811
5837 -0.40905747186673075 -4.206720615004897 2.6296177879626423
5805 -1.6852781455715478 3.940582816460686 -13.435132066134198
5831 3.940665504364973 -4.964889333296657 0.8452235523056795
5552 -1.7516579412461084 3.9797496545681015 5.350194941718882
5803 -2.9108963725207952 -1.5884769582110168 0.7215637317760619
5835 3.879565739628843 -6.887293169078894 0.7115334684697392
5553 1.8508678049844678 -0.9160095413769291 -4.613558431450075
5585 -5.8163666901500415 0.44431201584973257 5.161448291482543
5550 8.823632405944949 4.389942351969537 -2.3190415705115255
5551 -3.459624965840199 -3.3469367519631055 3.0559178533927054
5556 -1.5819758751496953 -6.490994222368456 6.042566728517777
5583 -3.7147180705158322 -4.258829965708543 0.7568514600128023
5806 7.646392612265745 -4.007107508995718 2.756917910989317
5809 -0.32751636645872917 1.833202647945173 9.574394620042233
5841 -4.167160211431543 0.4952307801391993 4.657299951875157
5555 -3.478282377629127 -2.8235652065431194 4.895979245057256
5587 -3.7722843830133312 3.7072706937585957 -9.457633952556128
5812 1.555241418670981 0.5285759040048008 1.0174705002626594
5807 -0.9829305570142964 2.6143431600008196 4.176970751699767
5811 -2.5044701367608004 -3.992069068471908 -6.5126030964238355
5843 -5.195801663782464 -4.4519100873906305 2.5155580464188723
5557 1.9989203556678201 -0.3584381523523644 -1.1502357013220956
5810 -2.029690210187264 1.6076841469663392 -0.8561105976208155
5559 -5.055026609025088 -4.555761377391239 7.9336977941066
5560 4.775916034452961 -0.9867369626673339 -4.977829651073187
5564 9.6638628347784 0.15671589887360282 -1.8437896603544175
5591 -2.56854869186289 1.464922029358824 4.839031673555343
5813 5.2635229087135125 -2.9554252640314536 1.2607844201841982
5814 5.239523164071506 5.105471571025956 -4.94692965163679
5817 -3.1400336089558047 2.034808274407739 -7.9578897986652395
5845 2.0351613939007387 1.6394538338003093 5.295594727514504
5849 -2.0132409175964265 -0.34795371428774075 -4.414522802833125
5815 -2.2476455833726887 -6.757449691807529 -2.929322660090359
5816 6.923452645427965 5.097814681267863 -5.964342945149055
5820 2.2514792374737325 -7.443239184497829 0.2275579744536907
5565 -1.724662495041227 6.227591581581077 -3.573020961481322
5563 5.9409871044184674 -7.430994468198029 0.2827752309835147
5567 -0.043473942052906084 -2.958856179929444 0.8917151290369737
5568 -3.189754437340484 1.5357619143603385 0.08974207870707869
5595 -0.25264401535933423 1.8050033456070451 -3.8622257710750048
5599 9.475178194287064 -5.03087758216882 -3.341713268374197
5818 3.301584618173649 3.01314383955404 -1.3375525086079485
5821 -5.455325367013568 0.35226668955462803 -0.06684781911191867
5822 -5.013464253398413 4.833635753101508 -4.683262523278967
5853 9.669348905431242 0.25743696393548643 2.2145526102150397
5851 -3.2255495755055965 6.593779407758136 5.389857167079516
5601 4.773432310528287 -4.545974280180328 -0.6376472806388347
5572 -1.7850013446720128 5.392210198747285 -4.29088234873318
5576 3.965839698004345 -5.720241626499615 -2.3973478951985236
5826 -4.5686634487846165 0.8376078272462231 -4.005712000790534
5603 0.3712345304686634 -4.33081401384641 -3.284575889259917
5608 -2.845643014064685 -0.06651152425242911 5.090756972832928
5858 -2.9553068643765914 -3.8757047439815544 -1.4687341804161709
5861 -2.016722830820954 -0.11901271160721542 -2.626538521637377
5857 0.5408028656636147 6.837527467674055 1.0754611703818537
5604 -0.1989324221413146 2.4244112087335496 -0.04541186153351566
5860 0.2528440073605287 9.421117557849305 -1.5081927049754842
5864 2.0740124321965867 -3.94964440101801 7.002965374422071
5828 0.9769822968062847 1.9967947916899293 4.481355939335348
5832 -5.196181060262693 -1.1457364896372322 3.3571266280280394
5859 1.8825156659773 2.418287503835475 -4.0088824821012805
5610 7.818086494499395 -0.48910512967563746 -1.6972939992706773
5613 2.9293435008025672 -2.4949044712570756 -0.7706718252389074
5830 2.4908101608659763 5.40321285676473 -0.6119371785508608
5862 4.299196447172415 3.5496160324959907 -8.591003868706018
5607 2.690644237996442 -3.279935102386508 1.0560588422510213
5834 -0.08384903828372414 -8.674533495902509 5.552110311183628
5580 4.246462223904192 9.21863166725107 6.388489289082947
5611 -4.163278415418016 -0.2512973992632539 -0.9487065883560819
5612 -2.1826477595023572 -3.465176495969753 -6.133756583639541
5865 4.152145479855838 -2.976109734447414 -5.667458294439393
5866 1.3688440269192645 -5.227350600143625 -5.55344616010938
5584 -6.921852954952701 -1.1813005208557976 4.0066667926555075
5869 -5.159229220951401 -1.312457168805003 -7.842123646602614
5872 1.4231378723782284 0.2545864581037607 -1.3274617682232002
5616 6.024269400001673 -6.277997704471179 -7.807923271774471
5582 -0.9735790430273712 0.5688349078604249 1.3537139940293346
5614 -2.0202055963651544 10.000687885737756 2.8050298777273115
5588 0.6882771350239137 0.6297320118654837 4.265983077136628
5838 3.7757669549625104 -5.4063236009100955 -1.4272240954071702
5615 2.1884225553583807 0.8985261072486057 -4.57513699577564
5620 9.219514941369585 2.734737609928051 -0.3240751596587992
5870 -0.7302549214922665 1.70631769080677 5.261054183110634
5873 -1.1456737658895684 4.558059811955153 -6.662230766518306
5842 -3.032969036875964 1.7709743464192456 3.2703794800714947
5874 -0.6688898102059615 -2.9798334457614426 -0.5577783729348027
5619 -4.788795029260879 -0.7689765270379779 -8.349431994827667
5876 -5.0626416129598955 -1.135372091160967 -1.777394062524441
5875 -2.3874006677849406 7.471982722017504 0.510453454423709
5871 6.467267385043879 -3.356869862095188 5.209987277095645
5622 1.2788447321157255 4.456350433203999 -0.6437434692619456
5846 6.1539737188735035 -1.7132139359151273 -4.077516137278208
5596 -2.2391924443040168 -1.3115241673302307 -1.445118305140851
5592 1.2284181848273799 -1.86398018823178 5.565376451453811
5623 -6.0239501001801194 1.67743490160517 3.7012073973849633
5624 6.165345854098765 -1.6116257025188259 -6.01779889684671
5628 -0.7382582158702223 -4.14432258611564 -4.481675377512491
5877 10.484969197300334 3.757705024468124 -7.776145729077888
5878 2.8043179949662367 4.280346428784746 -1.725635830932765
5881 3.1954054309149598 5.79257818190429 -1.2480503079051743
5880 -1.9702418443087706 -6.2321606360144335 -2.867160413454642
5879 -2.3046036473029927 -2.136696971306237 -6.04427554310615
5884 -4.204698618005062 4.630987543915219 -6.966009368491728
5852 -2.74292683959047 -9.440391280498039 -4.411164560197294
5848 3.4042839333197117 1.0668739490668788 -4.376166082253641
5630 0.6105647538985678 7.382870617478921 -2.116380935244187
5598 8.955685937627356 -3.2226617896222622 0.809515351346035
5626 -0.9023671213318817 -1.5729719825810942 3.4852144776020166
5850 5.5252110268397265 5.317065950571902 -2.487051442809356
5600 3.2202828131972936 0.6288409779411772 -0.019842126813314723
5854 4.725965768622002 5.975572073758585 -4.812463657485708
5627 -5.501431942003842 -5.348259001925637 -2.521910107043323
5631 -0.43437654243486445 1.012546191310808 3.608550369516778
5632 -2.1830334784019283 -2.038259688374488 1.645793815826717
5882 3.570228539464109 3.6391644197720012 -1.689339140534924
5885 -0.7617895797544117 -5.041403897332741 1.2664126049385107
5886 -5.805252150544768 6.386076345150096 -2.1059555999420336
5887 5.259442579752385 -1.8902924602023121 3.847550922141909
5883 -7.268825922110891 -7.377497295955065 -2.33514256637254
5888 -6.70253586326128 -1.2784202966502958 3.0389270778312008
517 6.018352002088443 -7.071651880991333 1.7305525872491287
61 4.857219121612571 -4.025652756967979 -4.722815801826162
64 0.8420332949715518 -2.65476773357447 -3.489865603058171
5890 1.1107298125451845 1.0374002997286564 2.922086289576434
5896 1.8045815932272566 -2.3752077417025568 9.460418881972842
5923 -4.359395528533126 -2.0753589961610257 5.991070292212879
5925 2.5953309166612137 0.16243190567840507 -3.6085677278260437
5889 -2.9626851070385145 4.4931700923601 -0.34931505908595556
5892 5.486405178955683 -0.9087459307535284 4.3596817315688225
5893 6.5866747463303525 -5.600105051702523 -3.863031053425889
5921 2.508816932502949 -8.698905997540349 5.405191505524949
1 6.280772306897007 0.03916037783531286 3.984762810980111
5928 2.861982562412966 -5.090311884512991 -3.5803942357293197
5891 -2.996287010734521 -0.5705212053561001 -4.246873346052803
294 -1.5225864213648859 -10.736865509537797 3.546755911688318
5643 -6.322629574762956 -5.196207127381204 3.8731843117920453
5676 3.059541556658443 -5.244972487032787 3.7359356337100653
5 -6.188516191918279 -4.007369758845792 0.18170240598309628
5895 -3.6860980195979125 -4.584927411516613 3.2595609106908463
494 -4.476784962058199 -3.606046619326586 3.101394714180915
5894 5.728202296530378 3.812038405974857 -0.8862503790629094
5927 0.9533000661022548 3.9030787219693917 1.0440790083925415
5898 -3.3393079730470965 0.2532274346468755 0.12858495493614724
5900 -1.6415149360718724 2.0650034054612663 -0.46228362742033474
5929 4.461229068028807 6.011880637682119 -0.5701860842684953
5931 4.3269830272235215 -3.475241733187742 2.377082788990827
5897 -1.6702635184544177 -4.867664808223914 -6.636512572657007
5899 -5.0169035951794845 -0.2421940668421822 4.852416068549508
5901 2.162516375975748 0.337481851586322 -0.08435947006255484
45 4.8127952775396725 -3.4641998073000644 -0.04967035465826215
5933 1.205503636312604 8.054618515858177 4.621928187346507
5904 -2.790353122985713 0.5371589047733091 2.3823086947950958
69 -5.860189599625085 -1.3628446787648307 -5.191020577141763
5926 -4.137877295477476 -0.8038328609260794 0.8309561385486391
208 -0.2535489193490513 4.5692236478696175 -8.811763497918776
14 2.432379806427947 -0.5203822594812386 2.0688019240075075
5647 1.0343396937674543 -1.7899563693844287 4.5597886979161535
113 0.08720147918928287 -5.043544152219149 2.7730179511086046
53 8.476823393888893 1.9400463319000392 1.6246254068343817
305 -3.003998874896717 -4.268789371037544 -1.6635259361655392
5902 -0.39919445300075806 -0.9266307680532665 1.5054605027386025
5908 -1.8227167461681775 4.146502799739704 1.8118815896806835
5935 5.942613661472606 5.220335722194417 -1.9473526428994128
5937 -7.684243740588021 -0.3548041877215397 3.2089061423434235
5905 -2.4798732892306163 -5.82930888108401 2.2820051544178113
5939 -4.373390592644967 -4.109475730025071 4.320083521043012
5907 -1.7535180045735597 -0.8693924975563002 6.366204657318558
5906 5.57483237281169 -5.14382937758481 0.7315420568843971
5938 -3.4579813957111307 -1.329399698493126 2.8932979754640913
86 1.0290652073627715 4.29193028706461 0.9621501779256606
5934 -5.259264721102136 -2.1754901838943557 -2.2093828220271714
25 2.1466017346818282 7.4164007134751975 -2.0821246614709503
534 7.462773032953314 0.24852679709789932 0.5193754510708773
289 2.891767090743824 -3.3978947469591527 -9.524662163561672
50 -2.7510267394353782 6.221923485774434 4.457056375943286
5910 0.2834923104849224 0.6494737755767557 3.368235405383001
5912 -0.5810160059782664 2.415615523166669 -5.196582153360975
5916 0.2621269651356252 10.302727602804055 -3.7040124543515844
5941 2.3482199780242823 2.3757433042315985 9.502353027328251
5943 2.6550032779601684 2.955234153357606 -1.529320088013862
5945 -0.5271947895180317 -2.3747558143495375 -4.107673025564584
5909 -2.305112587751216 0.8836688901654027 -2.112934064926002
5913 6.4467268326038685 5.523385045498251 -0.7459403794866665
5911 -1.375751532780256 -5.2888033488483295 -3.0844644003741064
115 1.6372739714876752 1.318105113788792 3.0618067430778346
5942 -1.9585796862896068 1.1914132850108499 -11.049649579407312
5948 -2.906860206945014 -3.721968914858187 -0.6054539740963731
95 8.876820550981208 -2.8918238755269225 6.342804916556257
30 -2.2365621148668686 2.974407763056484 0.693880465727383
5695 2.629714886287338 1.635374555030401 -2.326544630087176
5663 -1.523299787592629 3.454555570081143 -0.7079648312149494
512 -0.589275388697099 4.68772522852368 5.111730765064173
5914 -6.40381284330644 -4.070496330069124 1.1955888641936938
5918 2.5511100211649778 -2.1318081053646925 -1.1613447442139233
5920 6.272114898982789 3.7776587765475775 -2.8628536839386456
5947 -5.269038636841736 6.145263773204845 0.6708692415544858
5949 4.811358411691115 -3.720253786402558 -5.599878465813576
5951 -4.624548184089099 0.8860325000026769 -1.0270180637274773
5917 -3.668846179648027 -3.9241936970218556 -2.3043086588085027
5915 1.8238833985922551 4.5548114658318655 5.991070402533447
254 6.287854954255192 0.031714221997432845 -4.058161752899337
5919 -0.26197940483040505 -2.856485137900637 -1.3682456440820157
5700 -3.660169268951929 -4.947263879598213 -3.9449540283087554
97 -0.2810031878207473 -3.783105426637713 8.72229737172862
5924 -2.4561261031057118 2.1221804057553357 -2.3273259416414094
5922 -4.474632439890692 3.3405732012361375 3.2559766741880476
5954 4.2903448735980865 -1.5255297773050982 2.6143994551630603
5955 1.788830656055972 4.579667571231916 -5.733609229732303
5957 -0.09418844372649399 -1.9280525209722368 -2.0398978656800977
5960 -1.6980204462275656 1.1494961471899634 -1.634021883020959
5953 0.6081080864214196 -2.4467886028497836 -1.3873184550225353
5956 -1.3329633074211906 11.378320398645553 -3.1792997740995173
5989 -3.884993078349679 -0.8285561235590954 -3.6787409488922163
5985 -0.2781592388421609 -5.28008916482866 3.7632545268125206
5987 -6.253442989704742 0.6596373356794412 -0.9220537093997258
101 5.973011402855039 -2.913361612778429 -2.0735279471682193
5959 -5.493329477969019 5.762230370482807 4.849945797291611
266 2.485737204463745 0.6599906532573938 4.164600802713343
5932 2.341957046794332 5.045402888362283 0.1598251191652378
5930 1.9423847659010205 -6.900509774777509 -1.6150263066035255
5936 -0.9262461349937723 7.521932444515704 -3.053480484018368
271 -3.1950919102465734 -4.652161571428159 0.6229999261863423
70 0.21203126869383995 -0.802795900453876 -3.0973770849023468
197 8.926437369130516 -3.256121313068439 4.311891388676836
5958 3.3117768514736556 0.6064339237800028 1.3726171172778852
5991 10.373503197557794 -5.907546288533697 1.3877403407899926
326 7.926653916297774 -3.033885942104859 -12.916898474690997
5961 0.08408552058728164 -0.5543495944578644 -2.3557535507463663
5962 -5.725956110214265 -4.842063213721856 -1.6267895742247835
5963 1.1715679759322835 2.466577373613542 -6.375227415920735
5964 -0.32648369110730086 -2.4289131425724095 4.713689155464147
5995 5.6405592843434045 -2.344409112553769 1.9390740480952016
5993 2.021924508108214 9.959075876211108 -0.7628190536994356
5968 -0.9239548947620682 -2.2402354019804283 -3.5905425383086857
5965 -0.9290462599098723 5.7357825439861445 -6.525723447474625
5997 -2.1867157044030123 -0.7957234719191427 0.523944469120685
5711 2.273045310278622 1.2106858290418039 7.430545666203492
5940 -0.035825692531547174 1.0043660735077078 3.039576196846105
76 2.312873804312296 -3.587429659397076 -0.6936689856285226
46 6.0371480192547065 -7.803318980634078 -2.5418725503543356
55 -4.153214541598382 -5.2179701669537835 0.7065758107065019
142 9.559189035580719 0.9642010881679824 -4.386772248134998
475 3.391370407396655 -0.992418732618974 -4.212475728601167
5966 1.5968212790801395 1.6788837911331127 -0.15460888603751735
5967 -2.1245757131804965 10.101539526301472 4.881823668127946
5969 -2.974174470607325 -1.0974280128370923 0.25528869080346267
5972 3.094975356335228 -1.4753758274771245 -6.165335220695266
5971 5.799769054861663 -7.6562526513736575 -2.5772454300778795
5970 -5.249261744839622 1.9402983340522388 1.145282074441414
6001 -5.718475547213272 0.8846592266117873 4.91666476638509
6003 1.2849421333675868 -2.3204473893506323 -1.1733563043824333
5999 -0.6778915438106201 2.841435060860972 4.376138562050327
121 3.4278328607453434 4.6632094164962234 -8.636485388434872
5944 -9.883483043191509 -6.182510375337931 -3.081746882034339
59 -0.3455225863935802 -7.185404214996293 -12.870305697197857
244 3.868840378100353 4.706103432125238 -3.3208158806658923
5973 -1.5463224897776928 6.636988836158785 -4.811067622184139
5974 2.8328634312013223 4.15816043815632 2.430807535239982
5975 -1.419901009533796 -4.352511149797774 -1.3298891264436288
5976 -3.3558660272660514 0.05091946278126888 -2.0896486743780467
5977 -4.197809177894967 -6.891934706984554 -7.125294965287864
5980 -3.9279249208897404 4.537958551404582 0.36455030200653576
6009 -2.689952917926991 -5.788724511167667 -0.37226378415654676
6005 8.92151178456995 4.42090601019895 -2.845935793623617
6007 4.222380402767512 -4.019904587741451 -6.915073869526407
104 -3.6310902220330616 3.3914290867951578 1.545338921498631
5759 -0.8286896554261688 -0.19944622950484833 4.738230721364141
5728 -1.2230584746409165 -0.8829413868899322 3.7125275598174032
5727 -4.772769515027615 -6.873759034722172 -5.078624856768727
100 -1.425987034136921 -0.3463759372049917 11.007614936519937
90 0.023282711228067035 -8.199952190989098 -2.926807616369368
5952 -5.8976316659826455 2.1107627298236338 10.707899231640669
5946 -0.47494830985924924 1.6700277007836313 5.825865729516581
127 0.8613508974153201 1.4105281459840153 2.8234210641746063
5950 10.14109942109059 0.54903083166282 4.186221721311592
577 -4.52562761840282 -2.405790601769666 -2.07114224372671
767 -1.7596948516615094 2.7421432177738816 0.7784739873759678
5979 5.262514802148186 2.030765417471964 10.898133642826942
5978 -0.0546010328376631 5.0998025666046605 -2.7255069424244573
5981 1.4337853977249957 0.24744319215441216 -3.654447742336793
5982 3.543229459807695 12.720541179570267 3.4052202465122132
5983 -7.7242666871940955 -0.8395655165001195 3.408795299533772
5984 3.550732490319957 0.40023021255048175 10.213390382720453
6015 -9.052247778057795 0.13307755068198818 3.1010916833736344
6013 -2.8074732916793517 -2.0479837761552893 4.759592432222254
6011 -6.056599090552079 -3.0263141461853382 -1.704266000778491
414 3.1027036592100616 -5.214021269860601 -1.3031866032579702
5763 -2.0499617528761616 5.928409338996442 -0.4068163353141656
98 -0.9356364480946654 -14.330529433031973 1.5939796119873135
105 6.165707966656334 6.211412917612429 1.404349150847772
354 -7.659571174998596 -9.98088252657861 -2.773277989446046
5986 -4.015546243055437 -5.89454105131207 -0.3573926176372538
5992 -3.993082049220669 -5.832583114282728 5.125299051420349
6018 -0.6823014541183425 -0.4642116975677401 -6.561282104788691
6019 1.867720910794373 -6.700592076375052 -3.6822847600415716
6021 -7.826910446640956 1.4626352470430437 1.7314016116518398
6017 -6.440605096086805 0.19277752519006827 -1.366288342141388
5988 -0.0032245345121742347 7.295428068642089 -2.524278011121278
6024 -0.6428781606742643 2.3625342417092146 0.19885765492367133
6020 4.581460326017517 -3.291082264436053 -1.1206760582126012
5990 2.6113594911017213 -0.8664406839024081 2.7636825141326224
162 -0.35670365686173156 2.7788978126440385 0.9995420080647839
6022 0.007963931742027933 3.340719309057076 -0.9054364380898501
876 -4.382502140137752 0.9520366687370733 -3.036276959996856
134 0.010516592113878231 -1.7868244537915108 1.1550935724953908
6023 0.2532076658628065 -1.9475851103865003 5.046298994763911
74 4.364876783417232 -3.601308296484554 -6.0932201538249835
5994 0.6468343525288958 5.406451427598181 -0.5725242777788813
5996 2.822273594607405 -2.624507591804557 -2.120985939204373
6025 -6.084653237122392 6.835002768279022 -2.8361228326319847
6026 1.8745598161807209 -1.7791178647301005 -1.6313780119140329
6027 2.6655176569386 2.7221179441827372 -11.584453627657437
6028 -3.6157219334746684 0.19731799326266836 -4.45613592024139
6029 -0.23908692295526146 3.167237172276198 6.563955224467711
6000 -1.2852185284780482 -1.3430577383726303 4.662724188780714
333 2.3004309361807245 -0.12667145810291194 1.7010760013449715
6032 5.373402298297694 4.207185253205791 -2.0153976684459685
276 -11.816427852944233 -6.371255640089634 2.749999387203804
558 0.7780790715959194 -2.9143479751699446 -3.381633648821314
621 -3.9200280823129097 2.1414870376202084 -3.7487391447282783
338 0.2505327881823975 2.4673713841088336 2.7258814899047934
397 7.057509417220706 1.176899752483305 -1.2344129124128715
5998 8.128460782892692 -2.4481605167648786 -2.548862141956172
6004 -3.13666138761819 4.4607654337971265 -3.3267946857545425
6030 5.558629268951048 -4.129575101262128 4.67791950371881
6031 0.5429518227512987 6.605065709415588 -4.846941851488628
6033 -2.4647084159476753 2.4601707894911558 2.0026320685911707
6036 4.443072005864051 -2.488236800853562 -4.141506568521197
6002 1.020104589211622 -2.0368643817814784 -1.9212111300927683
6035 -3.3677215643423626 8.3679909521967 -1.521349175588176
6034 -0.5762323039285684 1.317958864682058 -5.773425704903845
5784 -1.43543131943394 0.22226760758148698 -2.975156870022446
923 0.65248507832062 -3.4743188101215705 -5.356418600237127
665 -3.9417830001636633 -0.7135633502129013 2.120587439177165
6006 -3.2607729212299357 -5.481550709517224 11.409785416982974
6008 3.0512132269715124 6.794780690662266 -3.353295000471791
6012 2.191429885745097 -3.602648172388391 2.723327706573538
6037 -8.593688936298696 6.033200712091297 -0.12181945046773902
6039 -5.181604471504984 4.254315704687936 4.9968144689040175
6040 3.9520699235692014 6.000654876281162 2.570033964731405
6041 -4.879674660446419 -1.7843845361531938 -7.8145774314881
6044 3.4192371275605185 0.07908837358728121 -6.372663066564463
6038 8.301248215189863 1.419808160730447 4.675196225245807
5760 1.7880951683265003 0.4071821772932107 2.9367121475107427
155 -7.272736861034286 -1.9907924269539776 -2.0720071397098687
6043 -1.6099028604921635 0.4741921093738152 -2.3198734574535838
6010 -0.11806720071582866 2.676932345221031 4.516565770029443
6014 -8.102118040784664 -1.3956514034214764 6.594290957348724
6016 -2.9721000929310537 1.2018622649842743 -4.465659234831258
6042 -9.552346866649875 -7.8803239399238345 1.5408758783059284
6045 -10.0985642265644 3.285556161290588 -0.023282629794476255
6046 7.389981377482529 0.634078348405333 -4.747407021376568
6047 -2.1378852857494914 -11.28421173054502 -3.0578680160206217
6048 -1.6971944404047712 -0.1167612807681831 1.017479580678013
194 1.4889282464739915 -3.0333398231803876 -3.036690665454543
200 -3.054393066053513 -1.363669336737954 1.888876917972848
199 6.95203067491807 0.9351623507048901 0.45437829033855653
6049 1.1909806687923916 4.308361409782087 7.970223981860406
6051 -4.07680070073121 7.068846009647278 4.7329165261410155
6050 -2.0691855160829173 -9.024029957903446 3.485486870621587
6053 -2.02326022492456 -2.1000172585291508 -6.475515650426122
6056 3.5871156211686754 -3.230119324061396 -2.897928598683599
6083 1.9877698359056735 -4.858799295233942 0.5488949300681458
6085 -1.350791404528193 2.0329098931955696 4.246165548256564
6081 4.909181463197957 -0.6825169986274544 -0.4695218789986701
6052 1.6203479793705602 1.7191841623406277 2.6269801743156025
163 4.913941696976768 0.9832597896130956 0.37135997313139824
657 -4.753642805623919 -3.6223026145129316 0.3565727242033726
5804 -3.1693980376227335 -0.716001098903128 -1.0430660650335275
6087 5.268587887847074 -2.0299629913118107 1.6757180660517788
674 -1.4466312786757198 -6.504077280097008 2.233779390567811
6054 2.771150859680494 -2.2644535225956592 -3.9408920069081996
6055 2.511994707920888 -5.535571380203 1.3986102669734994
384 7.967790679611541 -1.0396826587545407 4.756484632082847
6057 0.3323220209318351 -7.04588143005914 1.5223062051911103
6058 0.265284355114501 -4.43954924875852 0.3181257358019254
6059 0.6631286149764363 2.9675823949411244 -3.5428193914556827
6060 7.886489794818919 -6.055766006511916 2.6510643470900317
6089 -2.2084056392951577 0.24567765678583503 -0.0066903516444664045
6091 -6.349356186703704 1.095748205800111 -5.039745491144726
6061 1.9677218255072608 4.327516825706813 -0.6387988694099532
6093 -4.845128809728562 -0.6469787707256767 -0.7653403364385102
5808 9.840082222273404 6.747362651450105 -10.583647846087228
5839 -4.905567852577158 -8.099986080992156 -1.9365572982082309
6064 0.6441326212963783 -5.5765944775967355 1.7769113630777793
138 5.048268334982977 -0.24193114938909238 0.6223032817908479
178 2.132721527422873 -1.1643690191522127 -5.204154192337512
112 6.230344241372729 -2.1152159623932443 1.890463671966418
6062 5.492831402539255 -6.272648822526559 3.144730998662544
6063 1.2346111930664772 4.994650883199882 0.6553215576297972
6065 -0.6362689450985552 2.1771904656078984 6.714416981673965
6068 0.518470725657474 -0.3857232016948172 -4.543365985419742
6095 -0.2851931071169389 6.608756842098855 1.469353988769274
6097 6.0618696196508095 -6.698152628225754 -1.530289356792094
6067 -7.508668653424999 0.9204646884919412 5.9010097479317
6066 -2.413591859686864 -1.5683920170739738 -0.43011220757428803
6099 -2.1797490267838873 7.283995069796067 6.29266691479719
5847 -3.5457083669304366 -6.28619279726812 0.10288657461772727
730 -3.4005108366425585 -6.442607397233322 -12.551235176217784
153 -1.063281400623685 -0.985292640396964 13.323386219111375
6069 -2.0007443714325035 3.2206773092676753 -2.976481898885617
6070 5.268170979124556 -2.783423206469663 6.785552377375449
6071 0.6720288437505116 -4.669775433478672 8.596218420724666
6072 9.054925594904526 3.6326509582272015 6.889502541381698
6073 3.376814991068973 -3.102647253555015 -0.7370703475372906
6076 5.930014565673174 -1.3688466027503523 1.2843871505841291
6101 -7.577057450852614 4.6785617088946925 0.1726666844498026
6103 5.561001943357938 -8.067332487222012 -6.823823113503742
6105 4.929188222386246 8.938508571968617 4.639052386628944
474 7.339378421680121 2.9194297736642425 4.842369826825704
5824 6.706700113846819 1.9710195413494103 -4.600192708318337
5855 -2.604397485703355 1.9472992662603594 -3.88455669470407
5819 0.9265523602095787 -4.640793710054925 0.2812287380975789
5823 -10.17806179534021 -4.578532679401355 4.503352598072246
132 5.914750233937466 1.6010630685799874 -0.0960789089996126
385 2.345084113128348 1.4679146422154596 5.169114593376239
6077 2.7146046357520603 2.2111344564140567 -10.876627602650053
6107 8.427347594631124 7.396034681831024 1.370222431965848
6074 -1.8874355139177272 -1.497650616734052 3.749028364616284
6075 -4.9521257865769455 6.30738335494136 -6.322643255769529
6078 -3.051726013092737 4.500876480680737 1.3144030566548575
6079 0.24165888613614495 2.6362195266619786 -1.7959208187010733
6080 -6.555807913803951 -0.06057782838110771 -5.07650969364282
6109 2.105281410756655 2.591547236682383 2.7516987635573407
6111 1.5860901815649913 4.095716617422889 -1.8544992755155563
5863 -2.048876454707795 -1.9762165007616068 -0.5225500292643206
230 -3.0270439839744046 -4.0581982050473355 0.6016790835606197
257 -4.2159106308198675 -5.451328107234034 0.25020894614248995
231 -0.9914640354683305 -5.160203454088474 2.452124985685311
6082 4.313769920586978 -3.552797530462339 4.0360393513527475
6088 4.20084127651033 -3.91686630274399 -0.17683680379509006
6084 0.6829466703639648 -0.2767846230016225 3.3244922020651932
6114 3.0109078120893087 -5.783229730581691 1.926511520871512
6115 -4.714487684439589 -0.6310653292717515 -0.9539545802126919
6117 0.36573565495905813 3.652071704768599 -1.34340498667631
6120 7.175847873171472 -2.1769931932172497 -1.319943906821029
6113 5.711601990437122 1.106652298196112 5.654176266204784
6116 5.048759423734288 3.105694641806958 -2.4052394239276538
6086 2.9671682980169596 2.2132996824137936 3.760403576169311
5836 6.276040725505914 3.956503750212338 -1.1816909306914711
5840 -3.2940319470909833 -3.1785170580253284 4.2089200862665965
5868 1.815340334032064 -2.7381721667667516 5.775618509167101
5867 -0.06659374416086049 -10.060284889253099 -4.451600347576849
202 2.798982288798253 -6.316718805329622 2.7964828499765857
429 0.9671292408704399 -5.777137772892541 8.73515004562645
6118 -4.754892601685421 -0.5408754356978511 0.11389206200522535
6119 -2.5197298067981024 1.4139783099248617 5.7511933061136755
6092 6.527466576146908 3.0669923120718754 1.3636230116084112
6090 3.9105347899070177 0.778415367266636 4.89393199119453
6121 -4.080100927112114 -3.6741790315757905 -11.463587703963908
6122 -5.2023831710364385 -4.362053373207619 3.072467942356349
6123 -3.2219117986466093 3.2993528585952068 3.6281363492998104
6124 -1.124611108991997 5.690731451593717 -5.164078369185073
6096 1.2730109426605407 5.560897212062744 -5.596475764280504
6128 -7.345343531520752 0.7723640538696036 5.165692516431429
5844 0.27343493581862244 2.449339207423022 -3.587285752776431
5903 7.830414287333926 -5.111341260263161 -7.078411636129026
6125 -3.0971314561862866 0.288667257733619 -3.0403847859409026
174 3.5638144990328677 4.845468965880179 6.75995715883673
234 -4.211373330663394 1.3541516275678438 0.48433324691910057
242 -3.231176758201577 0.22509941211911766 1.4877914179268683
210 -4.890224964805109 -6.30721075485309 -1.706163302849483
6100 3.6798610694268086 -2.6365733440412633 3.5820985629870483
6094 -1.0345646530550454 -0.8951641199085776 0.641417751551693
6126 -0.03978254319461785 -0.8164799651319714 -2.087465191683596
6127 1.5715987777782368 -0.11218003613016805 0.06698812863178798
6129 -3.1264361814340904 -4.029569470273371 -7.346317516081756
6132 3.0286780224634304 1.9702793481070522 3.3222319680684738
6131 -2.5212684911136285 2.3495082893866837 -2.0292956412511156
6130 2.306682460956029 0.07511579892852388 -0.6068770649681855
6098 1.6077869896274009 0.25936404508226957 -0.1055114883380307
279 7.817411713468195 -5.178171629969689 2.2258527613337757
754 2.6373931741584755 4.286480937524231 5.287035797635554
245 4.556514565420737 11.854018006295915 4.340235418685469
18 -0.6499099080529921 1.373059628057221 -2.261899275029114
6102 -1.9006981201205666 8.04736510464482 1.0918991944115874
6108 0.7371263270112713 2.922164672137664 0.5161316899288033
6104 7.973454302431148 0.29534078881719805 0.12934907238733065
6133 -5.800077453749645 -2.235021964313353 3.5751066540041663
6134 -1.9724399735213822 5.986462254275576 6.626575993009156
6135 2.1750041328974885 -2.2809069245380202 -2.4603661934838366
6136 -7.728091653491506 -4.196508078872057 -4.896283743693625
6137 -0.4921909380977547 -1.9390683273187623 2.781065926591563
6140 1.0584360924434482 -2.2266828829744343 -0.06368925342918809
225 -0.46715693753352994 0.12854803989967584 -1.118298153238977
5856 5.092874669041606 2.4346000831661643 -0.9173247661624504
765 -7.278302563283624 5.004711364666305 0.4528633434051403
484 -0.36601910288854866 0.45181925230730263 7.024018155597861
31 -4.462357369041926 4.232002205805199 -8.539079382719352
246 2.9368049960526728 -1.0709668537609598 -7.347867373355542
6110 -4.132585094571424 -3.518787020788066 -7.0187117476313885
6112 10.065268661150789 -3.0255943614078413 -1.1798087449895371
6106 10.15771574453619 6.495949755389292 -2.522601154506298
6138 -0.5746778806480608 0.3942098521334449 -4.023808240755588
6139 -11.388787783671752 3.6037078731166257 -6.065356983463728
6141 1.942901945071188 1.8666533295601941 1.4664483352295985
6142 -11.710347139637301 -4.090789422525987 -1.2260653444024334
6143 0.46669741034098955 6.29196791572709 7.683850171624242
6144 1.4275266883693132 1.8643640545526003 2.758907300976908
