LAMMPS data file via write_data, version 22 Jul 2025, timestep = 30000, units = metal

6144 atoms
1 atom types

-0.2137655531032827 33.013765553102886 xlo xhi
-0.2137655531032827 33.013765553102886 ylo yhi
-1.5009960481902809 99.90099604818923 zlo zhi

Masses

1 26.982

Atoms # atomic

6 1 2.7864983086320425 4.257045447440159 0.2695153082828377 0 0 0
36 1 2.4808446862678615 1.8576017714515867 1.9270144894348809 0 0 0
505 1 4.710520893131848 1.9267171848187026 0.4385057933926317 1 1 0
542 1 4.568973766256271 4.006234985341038 2.2534089352048157 1 0 0
350 1 0.5460129649795405 3.725700828098174 2.4129698057125997 1 0 0
91 1 0.2500653481029008 1.6747197529286293 0.34563597659402834 1 0 0
39 1 2.61740042432776 3.9448175024138963 4.545893100947365 0 0 0
615 1 2.1685126656871607 5.853836135642288 2.441563461043932 0 0 0
1036 1 4.508513369023238 2.008101971428728 4.162486990326656 0 0 0
73 1 4.412854259860868 6.236986218656442 4.424283751528056 0 0 0
900 1 5.151627614241505 5.86891427881834 -0.15495064273296638 0 0 0
1270 1 0.782667514639159 2.100138722953799 4.626753891676026 1 1 0
904 1 0.41338080382986847 5.946711240157051 -0.018861250672271117 0 0 0
1014 1 0.3672808240530896 32.937803614542794 2.1502195328323714 1 0 0
550 1 2.4672637001187767 -0.07493527839113795 4.2042200007137485 0 0 0
64 1 2.4868192031301968 1.8588959154162203 -1.200812137123126 1 0 0
8 1 6.617036101636217 1.7649362890223292 2.5598469148606524 0 0 0
44 1 6.653758297053023 3.485573900883661 0.07752114543095562 0 0 0
1003 1 8.630575907820239 3.6045894836177257 2.2525739671463203 0 1 0
464 1 10.68321303909075 3.851495943208406 0.274505464914919 0 1 0
236 1 8.682120280668057 1.708409427486704 -0.055493671409721945 0 1 0
38 1 8.598656784487755 5.648589027927158 0.4171136028014237 0 0 0
238 1 10.712338985106824 1.6129203957498224 2.689916031669161 0 1 0
552 1 8.807052822033823 2.0857032662529935 4.325821198231413 0 0 0
813 1 10.864526745519173 3.6399307367899874 4.4440647768574015 0 0 0
490 1 12.915028895646271 1.8121954583832296 0.19807117027034 0 1 0
172 1 8.949843613357443 32.99641807111853 2.2199298033615054 0 0 0
432 1 12.86133244050161 1.9034424766970224 4.718146872275503 0 1 0
1084 1 8.796931622890988 5.925494478955004 4.065479653563806 0 0 0
58 1 12.920503582839144 5.864030139874117 0.20014013862857188 0 0 0
24 1 10.948320230762025 -0.03945802621619423 0.3954046444508962 0 0 0
280 1 10.679731690994373 -0.003921669334292731 4.593884163477686 0 0 0
290 1 6.8892992440577485 -0.13582935502641366 0.34180007303742155 0 0 0
503 1 12.873548821399954 5.30525749331712 4.520475652810626 0 1 0
493 1 12.638211346464665 3.863743795467159 2.2405104396121134 0 1 0
299 1 10.937713631588588 5.757623369235544 2.6050568771607 0 0 0
811 1 6.813116632982861 5.901924552851032 2.4331700060393704 0 0 0
359 1 6.523279771852099 4.202354013979398 4.446826890636346 0 0 0
215 1 12.930794518709597 -0.17628905026993094 2.3718913015532026 0 1 0
672 1 14.991762909063231 1.9389970151346145 2.427878149838463 0 1 0
732 1 16.964491751715773 3.5596978796485046 2.3737482188236325 0 1 0
20 1 14.656685360750371 4.003051951340805 -0.14883261151138416 0 0 0
311 1 16.49245641662543 1.8461266266200012 -0.249529846819826 0 0 0
791 1 15.234064437346483 6.112110278192493 2.0295972702553904 0 0 0
749 1 19.13408738714264 1.5161100551725002 2.545163910935451 0 1 0
71 1 18.909045947284458 5.747837906972713 2.089311278242785 0 0 0
203 1 19.27309610199921 3.951350836090532 4.613944630300961 0 1 0
721 1 15.361135505016064 0.2358416097855916 4.402241860195356 0 1 0
817 1 17.561878283601704 1.9365890469131748 4.70603139201909 0 0 0
313 1 18.817279641600354 3.6280720227554957 0.09330777153996025 0 0 0
300 1 17.362949781242488 5.767815433509156 0.03272668273041009 0 0 0
766 1 15.214209251258627 4.050901851429129 4.464800238531434 0 1 0
12 1 14.924765030793196 0.12883751100027482 -0.012912311476489972 0 0 0
522 1 19.39037717665383 32.974515372185024 4.566456578876523 0 -1 0
86 1 18.819182624408118 5.966737395639003 98.96304823710106 0 0 -1
449 1 21.19006568830153 1.8660148871169282 0.14226807365607014 -1 1 0
21 1 20.93136896175964 3.622807007219592 2.3244940039934843 0 0 0
566 1 22.77391918509519 4.306801189922585 0.4997920556349648 0 0 0
57 1 25.55119852957977 1.5405087000911608 0.07545295914715193 0 0 0
27 1 25.087376027478314 3.7998798132218696 2.073400906912179 0 0 0
807 1 23.432020988255776 1.8070088685597596 1.959234978534388 -1 0 0
1052 1 21.2683379261195 1.8949716997394777 4.408411742196477 0 0 0
554 1 25.483347113503743 1.9424471669746723 4.254445727311495 0 0 0
540 1 23.5908790788176 4.0180547154156825 4.443545499771432 0 0 0
89 1 25.932057748338334 5.860671761118798 0.7136490112984515 0 0 0
349 1 23.659360467489698 5.846590186847186 2.715725003081078 0 0 0
110 1 25.459246739748146 6.458993332628666 4.81915279731528 0 0 0
22 1 21.377574793434984 6.017161895351142 4.541721181472591 0 0 0
768 1 23.421963258930838 -0.16106421228557535 0.2611992190098168 0 1 0
440 1 25.36426860673893 -0.1608847067362009 2.3969959076671072 0 1 0
478 1 21.434683226309772 32.79682197339894 2.1703159524630817 0 0 0
84 1 20.380379023412175 5.5921563074750775 -0.20001738184882667 0 0 0
752 1 0.6166298896956857 5.781009208335308 4.305294405706209 0 1 0
573 1 27.600564934730624 3.7626836614212658 0.4289869667514709 0 0 0
515 1 27.78344944912626 2.2619898657793316 2.2418280977785767 -1 0 0
286 1 31.455373270144342 3.9870826193708107 0.614970717206646 0 0 0
291 1 30.140556232110548 2.0162331986112534 0.2032915093817821 -1 0 0
510 1 29.77267698034739 3.933745069409162 2.905917729705346 0 1 0
62 1 31.507847992829706 1.6487575959470102 2.700734333833665 0 0 0
790 1 29.58337214451587 5.5431792047401185 4.824444067153921 0 0 0
264 1 29.580018709490016 6.0636215536173905 0.488469285223994 -1 0 0
258 1 31.583277515588616 6.083786770471505 2.368280758301796 -1 0 0
543 1 27.615381763435604 6.054449130176678 2.892272316136428 0 0 0
486 1 29.127750033667997 1.7152490408498415 4.6401179889130075 -1 1 0
562 1 27.06281518669978 3.6175884896155495 4.865970144395469 0 0 0
247 1 27.557587293710196 32.787126034417334 0.44129165769947876 0 0 0
507 1 31.64335443876853 32.88049162155848 0.0010086235401076506 0 0 0
233 1 29.715234329467272 -0.19478328083021926 2.3757483810393585 -1 1 0
72 1 32.08111746796172 32.97014675696295 4.303870652135899 -1 -1 0
893 1 31.762047561129094 3.6409341519401868 4.887715138783906 0 0 0
604 1 4.762325643286532 10.2600705682176 0.22629006985940647 1 0 0
548 1 2.605539520012101 7.627347516321284 0.455734786357229 0 0 0
131 1 4.767785106553605 7.894250445819296 2.1087844805553684 0 0 0
37 1 4.822847328820026 12.112091284872427 2.2001343912748355 0 0 0
612 1 0.3587239048257675 10.625451001569958 -0.01923557183193208 0 0 0
858 1 2.4598924822734776 10.176515520302276 1.7079414126569878 1 0 0
1092 1 0.8839185996647495 11.915655872861844 2.148871168912976 0 0 0
378 1 0.4119725615227348 8.021406343519244 2.160493737194423 1 0 0
709 1 2.9408407366707214 12.547260796670535 0.07992699511820102 0 0 0
634 1 2.762551990082835 12.377897995263051 4.305343892444643 1 0 0
1122 1 0.8126001450686073 10.056765976285849 4.250356364145486 0 0 0
869 1 4.315179900448594 10.354057847258561 4.276892976787291 0 0 0
875 1 2.812375729929628 8.211988329139889 4.004554864536275 0 0 0
667 1 6.746065244342674 12.234893376007399 4.169139669528766 1 0 0
636 1 7.0527393880334985 12.413559861992765 -0.085993898871446 1 0 0
97 1 2.7661595596550232 10.38423359080133 99.60752474951931 0 0 -1
561 1 6.766126892800996 10.177479510352892 2.1760729949973374 0 0 0
1330 1 6.736191054432069 8.081444683911101 3.957601999650795 0 0 0
67 1 7.100392331746701 7.713304415005061 0.18248570482137091 0 0 0
102 1 8.928962467290944 12.150075955368072 2.4324465486430324 0 0 0
99 1 10.558559885560467 12.568669608189822 0.15327493692157526 0 0 0
553 1 11.038993143559962 9.91613901663144 2.3640919289434144 0 0 0
530 1 10.88576108841852 8.040995365533636 0.32280210367383877 0 0 0
870 1 8.912354529926802 9.947816728331452 0.046797304625369136 0 0 0
1297 1 8.9041692751351 7.772507597780429 2.139487100391892 0 0 0
556 1 11.173685199910796 7.973498624097401 4.3685084838686725 0 0 0
103 1 11.267120676805453 12.320785131977486 4.3953155878387875 0 0 0
504 1 13.105052490467651 9.951545156138122 4.368454331753741 0 1 0
780 1 12.97478217743969 8.021337928899785 2.4011373561362097 0 0 0
746 1 9.107131384502653 10.076296861803534 4.203503376363865 0 1 0
547 1 13.082232325637257 10.425101931578007 0.2038374022413043 0 0 0
278 1 13.099962872074448 12.398177646096393 1.8411654427795872 0 0 0
77 1 17.032831554348558 6.111581763901197 4.675589722005813 0 0 0
377 1 14.91816355078804 10.374215751983611 2.57846899769982 0 0 0
11 1 15.291308380543274 8.572251666075344 0.2742881274853467 0 0 0
748 1 16.824614768255003 10.770264399719931 0.34297900530935693 0 1 0
613 1 17.290443987422137 8.265900599519817 2.62353620506421 0 0 0
78 1 19.310342795310234 10.11193871814893 3.3575975407918115 0 0 0
288 1 17.086022966005874 12.110933875912114 2.391515555412901 0 0 0
409 1 14.962914056961289 12.530364923491597 -0.25558370868935243 0 0 0
75 1 14.991593046297753 8.122850321845032 4.461596014910307 0 0 0
85 1 19.186910589886082 8.296490444667228 0.6767929639917694 0 0 0
533 1 19.442848300004794 7.817903481877592 4.98263187203444 0 0 0
462 1 16.72209502795069 10.443455344736977 4.762905789749482 0 1 0
1269 1 15.289464071096457 12.850821624458034 4.630690905535535 0 1 0
442 1 19.28465169786662 11.802600054111617 0.49120637793883076 0 0 0
146 1 19.493362539083122 12.456324096918738 4.40864478770804 0 0 0
55 1 17.14914865771642 8.236457937045477 99.59550881508592 0 0 -1
316 1 21.34976709768771 7.8096860264857435 2.651747464522105 0 0 0
310 1 21.52809050046457 12.469905485586096 2.537954867416359 0 0 0
663 1 21.227071683597753 10.061737176883227 1.1188515362463245 0 0 0
603 1 25.60311047756458 10.062047833343758 0.20852533360384348 0 0 0
346 1 22.9448517427857 7.94180777933997 0.6321992390246981 0 0 0
407 1 23.74385582196201 12.36398555062132 0.5681524263650931 0 0 0
34 1 25.182398934625805 7.862601037235002 2.3583443190325513 -1 0 0
1105 1 23.738185077991382 10.168273228149008 2.734757325869954 0 0 0
401 1 25.244475865723047 12.273278093559075 2.6970253228032535 0 0 0
563 1 21.575693632584372 10.324977191806484 4.70230741171307 0 0 0
314 1 23.175821933246898 12.55352712143272 4.843626987363892 0 0 0
415 1 25.02016517914005 10.400000653553438 5.255661471192809 0 0 0
244 1 21.575923700932986 11.836120414284125 99.85761359524248 0 1 -1
868 1 27.11406641651363 10.256519736454006 2.4193771370140373 -1 0 0
1142 1 29.29803953217157 8.130387390831064 2.6234890771538195 0 0 0
693 1 27.76071977940727 12.347175821535458 0.0929540430492809 0 0 0
857 1 27.582840570220668 8.32034953353851 0.42117640041877635 0 0 0
129 1 29.70448806599833 10.10048663780804 0.3392048367845208 -1 0 0
630 1 31.479881410225047 8.09829714963195 -0.03733934985642284 0 0 0
546 1 31.670156109663736 10.002958592239667 2.1137522932953745 -1 0 0
411 1 31.669109357333728 12.319277221139984 -0.1363845537772884 0 0 0
1209 1 29.853051679303896 12.359303992513754 1.8728862994140014 0 0 0
575 1 29.624763291316587 10.368131269723223 4.237936717902488 0 0 0
888 1 27.484591596800094 12.103021542992956 4.661046552507213 0 0 0
117 1 27.416390827269684 8.54501871864467 4.60747069210323 0 0 0
602 1 31.638435441102647 12.127720653726971 3.8091934793175857 0 0 0
328 1 31.515503284322794 8.025004220209574 4.2316710388707595 -1 0 0
572 1 3.110974704280952 14.365674629692839 2.2410898074258467 1 0 0
357 1 5.097768964626472 14.316817567946222 -0.10020237583600719 0 0 0
167 1 5.035302844302417 18.5150023824846 0.1972243341736711 0 0 0
701 1 2.9125588394892823 16.488733204768714 0.07167898325025308 1 0 0
201 1 0.8701128787545378 16.05422557863462 2.412306071289157 0 0 0
695 1 0.701501745469041 18.215629687108233 0.5357287111588637 1 0 0
139 1 4.786478479105323 16.68257826016791 2.399789649936767 0 0 0
68 1 0.5817363118457481 14.20276805852048 0.4018951956005058 0 0 0
1025 1 0.548210558845505 18.21562293445367 4.42086835767183 0 -1 0
159 1 2.815432751320869 18.629621428063466 2.3144193320657336 1 0 0
937 1 0.6863126088489907 14.418518187347589 4.2468059192215675 0 0 0
1484 1 2.596127765146285 16.27157443151292 4.734745979609271 0 0 0
272 1 4.957071638607276 18.08811388442164 4.605025584180854 0 0 0
1218 1 4.784748138821154 14.354098248833136 4.773042702795309 0 0 0
905 1 7.001047990461153 16.2442338980788 4.916767878382517 0 0 0
1126 1 6.969986861447022 16.233951219929864 0.1344727765059276 0 0 0
682 1 6.637539866918227 14.504164412988825 2.2841697533404632 0 0 0
871 1 7.03319208198998 18.80749147546818 2.6374361087761695 0 0 0
106 1 8.846307697728573 14.59666090106899 0.6231572242947092 0 0 0
298 1 11.238807160440714 14.400116418264943 2.302016287070765 0 0 0
581 1 8.711281311514687 16.63457648038426 2.740263199940851 0 0 0
392 1 9.168209131741527 18.779639371714346 0.3400021186897716 0 0 0
686 1 10.872784559164264 16.795223621470566 0.37637284201437643 0 0 0
788 1 11.15037819721148 18.508631475297758 2.081571039134302 0 0 0
423 1 9.499697993719554 18.360875318201238 4.700527214446811 0 0 0
1058 1 8.920145989878158 14.31888903094159 4.391925302628084 0 0 0
583 1 10.990205947342703 16.096295465327895 4.343611518276513 0 0 0
171 1 13.540544023988451 18.850104580872166 0.1473651852307932 0 0 0
144 1 12.977732740128646 14.733199030732234 0.00435563956618272 0 0 0
661 1 13.313549766913416 16.384152320685182 2.0288125916894635 0 0 0
342 1 13.09893142871636 18.84157716758813 4.173950260886641 0 0 0
489 1 13.278957789122508 14.421900915106326 4.1609168721899685 0 1 0
66 1 15.590390041500997 14.215049551201487 2.0671028675939813 0 0 0
109 1 17.399010782514654 14.154589384252215 0.07460458475097954 0 0 0
502 1 17.353333098362054 16.129634013199045 1.687848121967673 0 1 0
471 1 17.197011267560644 18.633784128083256 0.23847712671909185 0 0 0
1230 1 15.325983623229519 18.336845370072826 2.1097742245467748 0 0 0
590 1 15.202672919638367 16.296468101324663 -0.09710581152232303 0 0 0
79 1 19.781398614596885 16.337955874729253 0.18157468747469924 0 0 0
404 1 17.26793420923308 14.467868900683401 4.350752005600152 0 0 0
394 1 19.390578080736784 18.427959571874286 1.9938081056431898 0 0 0
173 1 19.44334949803087 14.286701676636406 2.174715809105109 0 0 0
1132 1 15.20085841431471 16.41492452267089 4.075902220719734 0 0 0
584 1 18.869252627058057 16.37781975263955 4.062955298238872 0 0 0
338 1 19.318943047539598 14.262902922284997 99.63849332641625 0 0 -1
397 1 15.1574280543218 18.34880355437652 99.45335789195782 0 0 -1
88 1 21.50237122151525 14.233606184867256 -0.04100828896227943 0 0 0
152 1 23.84154697439343 15.748463257157738 0.06382171994532751 0 0 0
187 1 21.936777228011632 18.591156738082883 0.7133267113198413 0 0 0
668 1 25.756773314143697 18.673863107179404 -0.34094795924542726 0 0 0
698 1 21.778197754572425 16.179384567001616 1.6087680602578354 0 0 0
862 1 23.532676699848167 14.39923869731029 2.7305080539216307 0 0 0
924 1 23.859533080887314 18.680721709538915 2.56635920663641 0 0 0
978 1 23.65621076620236 16.525122803852664 4.535170422559338 0 0 0
959 1 25.580532383822497 16.081019934862532 2.1583083779003283 0 0 0
192 1 25.675072630358745 14.512884219585711 4.5769165233081885 0 0 0
1414 1 21.305978496876246 17.640884637826275 3.357411272329096 -1 0 0
1462 1 21.22239660099758 14.609339473163278 4.4009590881653455 0 0 0
537 1 26.03590851849488 14.166270127105692 -0.11813907950635186 0 0 0
306 1 27.579133164147343 16.469909560442506 0.3585929095412032 0 0 0
367 1 30.124597407571528 14.452417042445017 0.12011999236419203 0 0 0
160 1 29.629302998592802 18.521917518774206 0.576828649696667 0 0 0
671 1 31.775575140523607 14.388622231554969 2.318167969378515 0 0 0
1181 1 32.03476955957363 16.28000847733556 0.034104000742336035 0 0 0
1152 1 29.754865970670064 16.248308755904656 2.322701925034299 0 0 0
382 1 31.891485779192966 18.34802326248016 2.1726342042604303 0 0 0
189 1 27.57571751993259 18.310173963654453 2.4962200244898205 0 0 0
1573 1 27.513854982623375 14.15696204863574 2.096967448647132 -1 0 0
936 1 27.625990521338217 16.282238436092676 4.5041096139062216 -1 0 0
419 1 29.65270351115902 18.39254343722509 4.561296587451232 -1 0 0
243 1 4.809830613740722 20.346158658825534 2.4368440057986818 0 0 0
926 1 2.3913150914667147 20.31540578777144 0.2715759424607233 1 0 0
168 1 4.516240295351654 24.255279900955127 2.764325504926668 0 0 0
369 1 4.609921847100696 22.356995591585957 0.6929560588515381 0 0 0
198 1 2.7105605299103313 24.577225637038858 0.12778728786820712 0 0 0
770 1 2.6807224271617764 22.3696505577753 2.9186254387904347 0 -1 0
358 1 0.6513150701882575 22.796198800997495 0.4625414504688675 0 0 0
165 1 0.45645653491887433 24.84792449142567 2.1889901922385744 0 0 0
204 1 2.6315567445536456 24.667402466056473 5.5319294164183965 0 0 0
626 1 5.194146951056853 22.138078819191353 4.556376419929797 0 0 0
128 1 0.4169970444590329 22.47799424003621 4.5399684063696855 1 0 0
389 1 2.957620668697893 20.072406007881817 4.7851132783408366 0 0 0
80 1 7.735602448062715 20.163549937608103 4.680023535410355 0 0 0
745 1 0.7548041062466522 20.270399150511096 2.471670166406263 0 0 0
387 1 6.9204230516708165 20.789962282155564 0.42326434948840486 0 0 0
455 1 6.645529441529618 24.80537947249698 4.031440589814787 0 0 0
418 1 6.733796584824334 24.443336850596207 -0.04082260874815185 0 0 0
4 1 7.215454860243515 22.63012066498767 2.48461145008892 0 -1 0
425 1 9.260509736984579 20.22435405519624 2.3562565923421763 0 0 0
685 1 9.302998303058553 22.479129232032772 0.5169813554218989 0 0 0
239 1 11.037575269228714 20.797024459163723 -0.2540282926921151 0 0 0
169 1 11.308681765501936 22.880167128055536 2.1345835182607344 0 0 0
205 1 11.10379053646179 25.135374630951357 0.24594332373156183 0 0 0
13 1 9.167607841786833 24.844955574245663 2.0530256734689996 0 -1 0
1257 1 11.306920917410098 24.97392668596128 4.318486503043848 0 0 0
689 1 10.944904932140348 20.6388480585932 4.051384719376172 0 0 0
135 1 12.931572868376254 22.667230705826785 4.090570266141775 0 0 0
1698 1 9.216722294521905 22.83818061900664 4.469778924956638 0 0 0
56 1 13.243362002511002 24.83475768225598 2.1172070565692014 0 -1 0
430 1 13.171391676618217 22.937748302373706 -0.04511698336557491 0 0 0
302 1 13.124588481886828 20.53058565135505 2.0854097731277355 0 0 0
373 1 17.60264911219713 20.87215431854015 1.8571261822794716 0 0 0
116 1 15.294053302859545 20.86197777399525 -0.04987719781454836 0 0 0
435 1 15.460769497741929 24.80046250806066 0.3412827693791325 0 0 0
182 1 16.92647950666829 22.941312449425467 -0.310942951227674 0 0 0
183 1 17.313676233995803 24.889164327252576 2.7357352426321557 0 0 0
755 1 15.339800726973277 20.549766503101846 3.7621054466258292 0 0 0
224 1 15.82470808177527 22.779937392158427 2.325317478558515 0 0 0
366 1 19.432707352161785 23.11656542788533 2.1918770088263684 0 0 0
218 1 18.001094655851794 21.877994743659066 4.411814025848832 0 0 0
114 1 19.433091647117674 20.521986085142654 -0.07672426808704484 0 0 0
412 1 19.402680139458127 24.89880230991283 0.1528623872267683 0 0 0
642 1 15.088928133099493 24.752352989394613 4.191358678756864 0 0 0
617 1 19.430549216138097 24.94989727883056 4.6553183288531415 0 0 0
408 1 19.80187106211225 19.332724938539094 4.738417857918601 0 0 0
262 1 12.690184186293806 24.882760474654585 99.25678752910154 0 -1 -1
514 1 23.92163306015638 20.98678625811997 0.6929379190831495 -1 -1 0
143 1 25.842804552817913 20.6117971703076 2.579252972151214 0 0 0
441 1 21.0105226625601 20.50360157014611 2.723591655866926 0 0 0
191 1 25.74779570117941 22.84509639681028 0.3217501802322307 0 0 0
217 1 21.505788379747038 22.63687933871757 0.4173874584893431 0 0 0
469 1 25.47565440853105 24.778175389704096 2.6099152048240586 0 0 0
920 1 23.450416971187185 24.829402187158564 0.5537530353812231 0 0 0
659 1 23.34577541870605 23.068845245458377 2.5164451492225712 0 0 0
501 1 21.501869041886668 24.875820757708865 2.7863335613011846 0 0 0
742 1 21.208036075310428 22.462910821263435 4.673233522090825 0 0 0
528 1 25.80109998818131 22.718948981750156 4.306522001142908 0 -1 0
948 1 23.40388474126179 24.781045183026645 5.039508838337984 0 0 0
473 1 21.298087334497612 24.626306454754296 99.80694382763895 0 0 -1
249 1 27.625814032940998 22.91974480839123 2.492199422911351 0 0 0
221 1 27.996540301268126 24.67964108881848 0.18435717210718336 0 0 0
1202 1 29.66812161441155 24.672350279454502 2.2458206503305305 0 0 0
453 1 27.8003334853475 20.838808727583817 0.7020959648305011 -1 0 0
161 1 31.982552777800496 20.508139904593484 0.7010634243921577 -1 0 0
154 1 31.774002712023922 24.73241176034794 0.6420548051799504 0 0 0
150 1 29.90052564679285 22.410380799037256 0.16298502896832956 0 0 0
470 1 31.680560214263213 22.56563457490048 2.484130145474307 0 0 0
450 1 29.792198722810785 20.44257787801146 2.650488929513483 -1 0 0
448 1 27.807233246210394 24.771037250973496 4.680319991306458 0 0 0
445 1 31.878280673259162 24.649619887220037 4.435870273894473 0 0 0
903 1 29.494513027847532 22.372319415963233 4.4138269822891125 -1 0 0
253 1 29.771149678893543 26.74947963693265 0.39094342056247305 0 0 0
675 1 27.46551648585857 20.227376873264504 5.044059362942444 -1 0 0
800 1 4.761363112184047 32.524166570672605 2.305088734041301 1 -1 0
228 1 2.689007488363314 32.72408794540575 0.5929203548049664 0 0 0
255 1 0.6723141157629754 26.536803964632487 4.574281673953587 1 0 0
1474 1 4.4885170669542 26.969661719369554 4.548696640707361 0 0 0
267 1 4.733708935772493 26.468151890966983 0.07768345106200579 0 -1 0
1214 1 2.908183158617067 26.74136733748914 2.0892169142973396 1 0 0
232 1 0.9228110370025869 26.66373140537254 0.4268652750356886 0 0 0
219 1 2.6897864267880784 28.776573419043725 0.08725865583725426 1 0 0
446 1 4.835795641915564 30.996627673179706 0.04840863262149542 1 0 0
488 1 2.513892705436831 30.613195429608187 2.547343914505789 0 0 0
428 1 5.157674554932162 28.610285645616507 2.0668809745193113 0 0 0
250 1 0.8573005467153167 30.846744402394695 0.4095853718655922 1 0 0
737 1 0.4022480200042286 28.898967938762524 2.613185419531833 0 0 0
496 1 4.680352329609247 30.584065277350053 4.205125888961475 0 0 0
29 1 0.7166829636105206 30.97881336382213 4.5588772176651355 1 -1 0
820 1 6.434932546622712 33.00619072994987 4.467120979455469 0 -1 0
452 1 6.7845455196235145 26.480105018800717 1.981254669310856 0 0 0
226 1 8.780493655888971 27.013753685099598 -0.2637304043517905 0 0 0
380 1 10.950833358741939 27.109806402323063 2.280388708035178 0 0 0
463 1 6.808432037872441 29.020213281314213 -0.08435912892206207 0 0 0
454 1 8.671171129413725 28.936438574233772 2.2351218149152157 0 0 0
293 1 8.735008824084778 30.660709496225653 0.07340647043091861 0 -1 0
458 1 10.749634718898673 30.77792900855428 2.3061851155486375 0 0 0
331 1 11.014773856323792 28.91008099214039 0.04128888255443585 0 -1 0
136 1 6.791231392124726 30.827207631952717 2.22274310765633 0 0 0
611 1 6.667874465011075 28.297472159220312 3.951894366914603 0 0 0
883 1 8.723699354306309 30.89007516562634 4.396216223031188 0 0 0
343 1 13.238960177013373 27.16496060371769 -0.004960338276636316 0 -1 0
497 1 13.002582462212194 29.19018335346248 2.4694679530994454 0 0 0
297 1 13.003615284736437 31.10090811347148 0.4103772090191459 0 -1 0
393 1 9.00534041973977 26.567747225226313 4.406430911218045 0 0 0
206 1 13.371487882517707 27.044533249268593 4.514357814565027 0 0 0
676 1 11.259530825523937 29.033386902116106 4.4211519085028375 0 0 0
506 1 19.107187455655364 -0.05248543579443695 0.6484648102929401 0 1 0
908 1 13.173723863596662 31.167749705899908 4.186805691509326 0 0 0
251 1 19.40455911785636 26.892863715407138 2.4445339657092595 0 0 0
292 1 16.861902115694704 0.006944205575951134 2.2762616768192876 -1 0 0
274 1 15.107004434638299 27.103500329589103 2.4881037864347726 0 -1 0
753 1 17.151613842147245 26.995227697517336 0.7212411675749854 0 0 0
213 1 19.495723330664074 29.102526297661367 0.3175621523686962 0 0 0
41 1 17.10702245000986 30.703532308055653 0.417479127182511 0 -1 0
495 1 15.025606716032485 28.83204905320063 0.4151706570317023 0 0 0
942 1 15.079478357031086 31.16179404077854 2.183084219712826 0 0 0
751 1 17.334766469450877 28.850173888395958 2.4039071550350557 0 0 0
28 1 19.328734389113865 31.22539609855169 2.1504347329542948 0 -1 0
241 1 15.088148487322956 29.298705022711285 4.422927814043308 0 0 0
399 1 17.15719336044143 31.092307132080514 4.580088675364864 0 0 0
623 1 17.456204474890544 26.588760926235928 4.868309052767997 0 0 0
1467 1 19.079536091001373 29.024541566327972 4.309639794624569 0 0 0
1299 1 23.643293239085683 -0.0004716684384973458 4.767261159675174 0 0 0
481 1 21.481692442944247 26.9896898616396 0.48475648209372363 -1 0 0
898 1 25.641120796232027 26.31643822290372 0.3673087434516694 -1 0 0
957 1 25.566491154768062 26.811379724604024 4.485901947560322 0 0 0
466 1 23.537881096450565 27.14689433493301 2.5536860616459944 0 0 0
1015 1 21.594107537340935 26.65741919259971 4.479222411279303 0 0 0
248 1 21.64649683432038 30.712920055807118 0.4260822058450227 0 0 0
417 1 23.509307977361914 29.069446930704274 0.540638498431508 -1 0 0
658 1 25.989779469535357 28.842286702086174 2.06213876152558 0 0 0
193 1 25.5126277338119 31.394467956998902 0.12419980824727847 -1 0 0
209 1 21.14519800132552 28.904977374673187 2.600315466637806 0 0 0
571 1 23.507777887464385 31.026310899954716 2.747360394001547 0 -1 0
17 1 21.6087776855946 31.21923797089613 4.914909432051304 0 -1 0
607 1 23.397195945417085 28.89201894705053 4.359415202163416 0 -1 0
443 1 25.90917631232819 30.730031273164315 4.184569208575582 0 0 0
508 1 27.293756875339092 -0.05266451520001659 4.011287671500203 0 1 0
965 1 27.691377942279527 28.83375643225056 4.558329498374894 -1 0 0
421 1 29.476449536642885 26.8101360735748 4.641698083319898 -1 0 0
890 1 27.77922469112792 26.423222913715858 2.3252351990386546 0 0 0
158 1 31.490055617511082 26.98029432434384 2.4979309656076314 0 0 0
196 1 27.61025316730481 30.840548987845562 2.0951513630583265 -1 0 0
211 1 27.66983287884236 28.57325749646772 0.14960923767943746 0 0 0
509 1 29.349500833149865 28.80770496305629 2.2244146853139743 0 0 0
220 1 31.66595803801392 30.8831061231896 2.2870715700352218 0 0 0
54 1 31.74095839316713 28.94810190913364 0.48117691808733626 0 -1 0
285 1 29.5783778160127 30.649495763643838 0.23087620003317944 0 -1 0
802 1 31.09808530676651 29.193930204875826 4.201482697017787 -1 -1 0
282 1 29.29009199442562 31.257981851829406 4.351228196559109 0 -1 0
1061 1 4.393829277031157 4.080185876779451 6.425076203750114 0 0 0
1200 1 2.8936391890615303 1.9428126865483426 6.7393750341666445 0 1 0
1121 1 2.503562732730294 6.109856635723776 6.266300955145582 0 0 0
585 1 0.6170611747916587 6.15071428144959 8.411856708845356 0 0 0
930 1 4.384294373614839 2.3394006753138323 8.855639509478081 0 1 0
459 1 2.8352265659339078 4.751375021537198 8.625862530412721 0 1 0
833 1 1.9819441320389009 2.6871274210643423 10.768143608386078 0 0 0
970 1 0.7755160284157474 4.159482090573273 6.708246625747269 0 1 0
712 1 4.954798264459902 0.39327509702681046 6.8007208373637855 0 1 0
49 1 6.453590397508146 6.74604359957913 11.129551885524322 0 0 0
520 1 3.109961683117667 32.75855258483694 8.621821940396755 0 -1 0
1093 1 0.9894873572987521 0.5517945704914736 9.624151567334886 0 0 0
1322 1 4.465843880871459 4.640797049345426 10.329271959278909 0 0 0
361 1 0.07823188880408774 4.647459351936374 10.648285748143637 0 0 0
368 1 2.294304135213732 5.216129320340223 11.989935391501776 0 1 0
15 1 6.527546069982404 4.042560826372607 8.36443902825241 0 0 0
1264 1 6.740599382134649 2.271634324030215 6.170850043989594 0 1 0
426 1 10.545927473956455 1.805428028702958 6.670592998316714 0 1 0
525 1 9.058241000087376 4.253270144771237 6.416589389789093 0 0 0
1079 1 8.279319969622119 1.5033407061536719 11.116079097039783 1 0 0
130 1 8.79255633234291 2.0534905892011657 8.46998609902854 0 1 0
320 1 5.370174975468089 2.14962231374829 11.831282396266252 1 0 0
7 1 13.097720569320881 5.720388445081359 8.684938035231829 0 0 0
498 1 9.085907342891794 4.658025558329161 9.38423345229987 0 1 0
580 1 11.177312842769174 5.748541542326056 6.857012692254707 0 0 0
1089 1 6.8131828701618735 6.455853037918311 5.972623356858612 0 0 0
1066 1 8.327849865689789 -0.1548219001632079 5.885331754788387 0 0 0
787 1 10.830907804752984 1.8394856401058775 10.566271462583734 0 0 0
997 1 7.140874212244192 4.026641194064536 11.159694445091207 0 1 0
887 1 11.288709053682842 3.8257611050595037 8.789388570167578 0 0 0
595 1 12.85274296331811 1.3235471577288012 8.545457834785902 0 0 0
779 1 13.11267575795823 3.7114985962710674 6.813427433755017 0 0 0
1611 1 15.032157891497723 3.396877817477008 8.264258043629344 0 0 0
1044 1 17.28035987243126 2.071306241949462 8.793912914405034 0 0 0
60 1 17.374325494774908 4.224765893517312 6.680921996853795 0 0 0
352 1 15.432308650720753 1.7442808379629864 6.46706436848984 0 0 0
340 1 16.531187085384452 3.2411119386449045 11.249852236196885 0 0 0
444 1 19.64877404093653 2.6164439319332278 6.7202422766822325 0 1 0
1274 1 17.917385098860642 5.376829351339321 12.257992360202845 1 1 0
855 1 19.54172891603613 3.2839084395918188 9.952077975847732 0 0 0
1701 1 17.319631060378782 4.967196774758301 9.341649014346677 -1 0 0
1587 1 19.554283308102153 5.936065952119771 9.76035866227621 0 0 0
725 1 17.67711126139348 0.25793389841004044 6.450863555978434 0 1 0
549 1 19.33932954098988 0.10983446848985232 8.676633619868802 -1 0 0
374 1 15.633630526973763 0.27754870819977456 8.725209205721407 0 0 0
618 1 19.763846400118236 1.0603259801698377 11.393589205262053 0 0 0
1238 1 13.41859870774768 0.2802528866614014 10.861681418507713 0 1 0
93 1 21.172455663736468 4.494620297092238 7.728007017102143 0 0 0
1016 1 23.017012291441755 2.166000184358236 6.439328549122981 0 1 0
10 1 25.638352772233425 3.821109633732271 7.3308173526150515 -1 0 0
1311 1 21.442729764663106 1.5162791530504809 9.325357985345352 0 0 0
570 1 25.177859732831216 5.478479515183338 9.465722117419565 0 0 0
877 1 23.357919941825074 3.4100458994528804 8.907141345997402 0 0 0
825 1 23.586742085932674 5.692958441747789 6.864765933789445 0 0 0
260 1 25.449135272101763 2.4662122176580947 11.142367092359851 -1 0 0
1008 1 21.070240609382335 0.18436039935696882 6.599225574554763 0 1 0
823 1 22.408489764888888 5.483115722466933 10.318641876505668 0 0 0
786 1 21.703478636437186 2.8090443684425126 11.596703389639222 0 0 0
402 1 23.760900566323038 0.2644684868276912 8.4777722822242 0 0 0
345 1 32.97775042765539 2.655663755691405 8.692240196869426 0 0 0
1002 1 31.080519600039715 5.998679561111839 10.043327759139663 -1 1 0
652 1 27.432807911386018 3.9291057252543107 9.844527536393143 -1 0 0
318 1 26.5474374786772 1.3074836769035865 8.936161099241783 0 0 0
87 1 31.07055688627025 1.8656858617955803 6.550293008053989 0 0 0
792 1 28.344470658223425 2.3578196129974955 7.31015425862781 0 0 0
287 1 29.79931229967095 4.4150201612869 7.519478956890828 0 0 0
795 1 31.81601281792731 6.203258006391718 6.203786085457818 0 0 0
321 1 30.37033403349949 2.975366771826862 9.472261664445735 -1 0 0
895 1 27.66461502843576 6.249145918835777 6.89797679730999 0 0 0
33 1 28.59064634493319 -0.16512677731551087 6.841225226690082 -1 0 0
1135 1 30.29173856279006 0.2474050457857371 8.57977041620369 -1 0 0
608 1 26.175001884234565 4.9466076118911255 12.119358023772776 0 0 0
1149 1 28.622754638735895 5.894676309059508 11.75723625370762 0 0 0
886 1 28.80022546642074 0.8824732908150703 10.601236830415667 0 0 0
107 1 0.7924867549549648 7.411159479501906 10.736024476666145 0 0 0
519 1 2.759456779580539 8.141511115422738 8.397308072404755 0 0 0
578 1 4.984432204701342 12.188072781599175 5.991455170387936 0 0 0
637 1 4.5509963401769475 8.216556674745112 6.285595486219734 1 0 0
567 1 2.6357649029125088 10.500985096683001 6.416897544655135 1 0 0
610 1 0.20517972478423613 12.193611133445021 5.933957809219578 0 0 0
9 1 0.7569788279783569 8.223220149683184 6.3693568421644375 0 0 0
1213 1 2.1278037924719433 11.574782736090375 8.664556821131017 1 0 0
395 1 0.5116649340145459 9.445721256868401 8.556084778080697 0 0 0
40 1 4.8213283618384875 10.742024893124343 8.136529847057544 0 0 0
620 1 5.051840526464404 6.677040612937023 8.472698293467335 0 0 0
1380 1 4.603253946120142 11.324102821333762 11.175914771019551 0 0 0
137 1 7.3180046735037765 11.874399265116534 8.59895022809316 0 0 0
1101 1 7.16823636183266 10.35711152771165 6.2353682236649615 0 0 0
625 1 6.04942910107719 9.11888720851866 9.705979358147886 0 0 0
1067 1 9.00062834305708 12.308388869394966 6.028637184617187 0 0 0
516 1 9.054878479991787 8.174813778636496 5.883018471990263 0 0 0
596 1 11.062466991650656 10.018488554225296 6.267234631085023 0 0 0
270 1 8.25935230004364 9.097068312053686 8.373362149238142 0 0 0
591 1 10.773411103364861 11.61409753601928 8.314950352709584 0 0 0
598 1 13.050519995735291 8.168873055888765 6.537036869640561 0 0 0
1195 1 11.082508462950178 8.222999759553234 8.317017747238488 0 0 0
649 1 10.092991603777735 10.124542904538897 10.168686284994198 0 0 0
1681 1 13.353171072736387 12.642707955378745 6.534579773489928 0 0 0
499 1 8.550011006443123 6.8521624122238665 7.979107254021393 0 1 0
334 1 9.31899923767128 13.334818386120743 10.869310343877196 0 0 0
1582 1 13.29430745954583 7.631349715636582 11.164332037866957 0 0 0
597 1 13.092476298484561 9.707015879969886 9.441366844204097 0 0 0
344 1 11.914650731426278 11.890012824080038 10.83208289537547 0 0 0
1043 1 15.437273052574982 6.057805320118723 10.778776860608822 0 0 0
312 1 18.816109849182126 6.173841497676067 7.210591813572968 0 0 0
141 1 15.268135324697486 6.025093074915046 6.8899166239559255 0 0 0
915 1 17.004505507251046 8.454645428262149 6.5635642999753525 0 0 0
317 1 14.71499100790115 10.189468752732628 6.399944573281461 0 0 0
1529 1 15.445496856465137 8.017137914913267 8.774450660134647 0 1 0
744 1 17.324369011601927 10.37283127330835 8.625808952934497 -1 1 0
565 1 17.466176365865547 8.006026488916875 10.462777560421854 0 0 0
557 1 19.324411246290303 10.14040792281318 6.46107414437457 0 0 0
1098 1 16.823771296101953 12.740574466737188 7.329218393032686 0 0 0
1048 1 19.441198721579557 8.732381041645013 8.468866068939828 0 0 0
273 1 19.233948369632685 12.547273616195778 8.341413605747379 0 0 0
472 1 19.44364441328634 10.554597435675413 10.989370939377283 0 1 0
1344 1 15.483584746658028 10.145507431008902 10.597144310338567 0 0 0
1579 1 14.602133848757273 11.96496053462295 9.042960239139763 0 0 0
719 1 17.419565609182875 12.4629556250233 10.600339974563527 -1 0 0
1253 1 25.81196412735985 7.6121476685242495 12.018544125013856 -1 0 0
998 1 22.90339163367945 7.0562253774546795 12.258955287101461 -1 1 0
335 1 23.329884372400453 8.111820350065367 5.233505165326968 0 0 0
653 1 21.39344536669113 10.943497304326026 9.340201200928107 0 0 0
1145 1 22.94716908148802 9.953815609953741 7.3077490802408 0 0 0
859 1 25.712962928506403 8.079584372612592 7.056626144017685 0 0 0
864 1 23.62370991857118 7.690751437297316 8.856108965130385 0 0 0
337 1 21.535792486427805 7.733085761593763 7.233970656059577 0 0 0
616 1 23.541769518233668 12.38998883732658 8.905870222394668 -1 0 0
348 1 21.347557234218286 8.318783382253494 10.610937845643022 0 0 0
1117 1 24.702031084070086 12.19869677687318 11.072670221546659 0 0 0
83 1 25.09923314078262 10.090171946743558 8.878565141094597 0 0 0
82 1 21.31598329523963 12.388097813706125 6.812373870660433 0 0 0
949 1 25.28357961029478 12.691834942243606 7.160774423910596 0 0 0
764 1 23.463667598081656 9.873391589641969 10.985928302114472 0 1 0
456 1 20.158167489024336 13.246728869561377 10.93742306755309 -1 0 0
809 1 28.826231405502874 7.251295129547186 9.320766502571246 -1 0 0
406 1 27.409197319874195 10.046893128609684 6.693211466241584 0 0 0
42 1 31.931381149920885 9.994439593778798 5.7485268235303915 -1 0 0
410 1 29.723646841346685 8.884769492626054 6.692019595622038 0 0 0
1024 1 29.678315775915006 10.15042168870676 9.20366213184526 0 1 0
842 1 29.52838323893694 12.094431281237561 6.488188483214468 -1 0 0
1208 1 27.299699813556856 11.514981778031213 9.320879037965687 0 0 0
1234 1 31.585785270185884 8.095434816781736 8.55361512240203 0 1 0
307 1 32.175796487699046 11.585670214617588 8.713663477835361 0 0 0
860 1 26.536561090484252 8.214952557774838 9.613239112006804 0 0 0
681 1 31.169067539081954 11.930964748832617 11.52158947140015 -1 0 0
939 1 26.770525763069553 10.313708235050921 11.713804092286402 -1 0 0
687 1 1.9002545893766916 9.913507028139287 10.885733065404049 0 1 0
1368 1 32.381612303633176 9.67691540386467 11.149783100023985 0 0 0
907 1 28.893783403413565 13.44392525178906 11.181523286777104 -1 0 0
1053 1 29.25779616154062 9.078098578832149 12.030635499265525 0 0 0
467 1 2.718960332302164 14.465887562419393 6.3572891008099885 1 0 0
999 1 2.8383570027205174 18.346091484415467 7.052050951682808 0 0 0
1217 1 2.285621837942862 16.07078733658338 8.285150257896627 0 0 0
932 1 4.822689274388765 16.111575280568793 7.212477799899054 0 0 0
784 1 4.598055843987067 13.323200706146379 8.485596629933458 0 0 0
119 1 0.3897718484860596 14.068370032943465 8.181464403925295 1 0 0
574 1 0.23723734184561562 16.318473195109885 6.36734242667812 1 -1 0
1178 1 4.988409799463537 18.884948715716163 8.774346182898974 0 0 0
413 1 2.241715783412043 18.119159099281337 10.61664479163042 1 0 0
1954 1 0.14549784300381613 18.133948320724823 8.60827509118835 0 0 0
828 1 0.3593182939649107 16.22247750084106 10.464561898845986 1 0 0
1378 1 4.549493060828532 16.076375956764025 10.114780669434422 0 0 0
35 1 7.1664065947564275 14.10090631386076 6.4762924638289645 0 0 0
296 1 7.3344614319117705 18.637994003838482 11.020741296685477 0 0 0
295 1 6.6257025385602555 13.831621026692542 10.035030481616989 0 0 0
826 1 2.578507454880196 14.046237111054714 10.33784256721818 1 0 0
360 1 7.399300930421908 16.587396677429812 8.907099840366138 0 0 0
643 1 6.945139050516382 18.246164221274416 6.789885855935804 0 0 0
145 1 9.18763003654686 16.558080969390847 6.931902910709063 0 0 0
347 1 9.154448407405992 14.178123699819011 8.528846077667703 0 0 0
660 1 11.437998192500716 18.01710450286311 6.8278918178248205 0 0 0
647 1 9.256389638539638 18.414392185933927 8.658404863991382 0 0 0
330 1 11.126488643266024 14.435865862267029 6.308408579919292 0 0 0
398 1 11.352017066231605 16.41599233888598 8.937160184807082 0 0 0
1338 1 12.230368161519351 13.901051390412132 8.79860004490272 0 0 0
468 1 11.607106031985602 18.813460356014193 10.321590807598016 0 0 0
973 1 13.38798494901431 16.56991258894929 5.9195369638183895 0 0 0
968 1 13.55983233573188 18.604144045102718 8.415928800812441 0 0 0
23 1 9.473265595233066 16.530719670938502 11.356801702672634 0 0 0
938 1 17.211666042690467 18.806568088826126 4.360402055115575 0 0 0
52 1 18.326095060999172 14.473867675340468 12.759297870144234 0 0 0
315 1 14.342804185675863 14.949476809225526 9.562380590588976 0 0 0
148 1 14.984979524159723 15.196201828087013 6.9701327588672735 0 0 0
1450 1 15.068761585861145 18.52775952784259 5.993238013511059 0 0 0
1248 1 16.500277136024884 17.931692660280902 8.494456085165636 0 0 0
1109 1 17.435382980493003 16.735935497402075 6.143397152243141 0 0 0
362 1 19.054942685778705 14.503914341313555 6.604798983658016 0 0 0
363 1 17.317883329886204 14.847622042533802 8.60400974464479 0 0 0
587 1 19.27603902288985 16.509283485502095 8.541973579092605 -1 0 0
179 1 17.88977543731717 20.41124472592419 9.179091394722246 0 0 0
156 1 20.047302033423207 19.03419560069687 7.516038344578951 0 0 0
1437 1 25.189192092532277 18.741750276785037 4.875933173363725 0 0 0
447 1 21.528902160854145 14.410671677957545 8.361202444735977 0 0 0
151 1 20.793475012603015 16.544942066008034 6.2070427650097875 0 0 0
832 1 23.642995228874547 14.882607731836304 6.588040658777878 0 0 0
185 1 26.04553916697892 16.521720766540472 6.888960608643152 0 0 0
1580 1 21.429419333142807 16.819558391009323 11.235810988586065 0 0 0
892 1 26.744986982415448 17.587700721407096 9.697498421712774 0 0 0
960 1 22.470635554144998 18.925873420711035 5.863081664816941 0 0 0
341 1 22.188354056838644 17.028297898549347 8.15789838552693 0 0 0
1977 1 24.411660872363843 15.278681921606891 9.0300770952049 0 0 0
1410 1 20.247191844850793 19.010964860428224 10.320634864009829 -1 0 0
431 1 24.534674799357862 18.278934510743625 7.6104902322991785 0 0 0
122 1 22.667569107429895 14.305808930412377 10.87439952607793 0 0 0
223 1 31.796031576826028 16.085300048287518 4.194263102597188 0 0 0
614 1 26.789590252877783 14.36281235479397 9.194581073246495 0 0 0
1602 1 29.24127269277632 14.21116172171975 4.047377400115564 -1 0 0
353 1 29.582030262930868 13.63691145657922 8.51657851331734 -1 0 0
1907 1 27.70251227752202 14.451128648050952 6.531676507001055 0 0 0
635 1 31.577684272446714 13.768478209331327 5.881063604050884 0 0 0
381 1 31.831975778192586 18.652611235149777 6.493153434724952 0 0 0
927 1 30.035284748588982 16.197383141330242 6.247554833094932 0 0 0
925 1 31.319931712151906 15.901912143899555 8.36141864794452 0 0 0
922 1 29.03423586235144 16.552037254198673 8.89776549829246 0 0 0
679 1 29.776929149773558 19.19698048574916 8.93900707348339 -1 0 0
483 1 27.833414253809696 18.301889084695993 6.804604648310365 -1 0 0
1110 1 27.34346721254671 20.675471226366447 8.808946946271307 0 0 0
1133 1 31.712557128096428 14.029630718838176 10.007064623963203 -1 0 0
801 1 30.780667356982 17.116499978651458 10.705292715931598 -1 0 0
902 1 2.632316263338361 20.53163859295664 8.91894315599334 0 0 0
1488 1 5.189938871497916 20.211141424933942 6.405159656658924 0 0 0
256 1 3.031542178623073 22.043607173198623 6.170852964633123 1 0 0
1452 1 5.129607305514243 24.537787671104546 6.165861597852573 0 0 0
3 1 3.2829307319324736 23.825754210141074 8.361488286452282 0 -1 0
977 1 0.7130946785645704 25.473735495393786 7.055653413866694 1 0 0
700 1 0.6014118131246581 20.462808681039846 6.244555632901405 1 0 0
741 1 5.363220408900482 22.011619872209536 8.286227168525473 0 0 0
934 1 5.447852501933067 20.85519169970762 10.783683204484808 0 0 0
683 1 1.0595216310388345 22.674423479207903 7.427209825948658 0 0 0
1486 1 5.215808322140458 24.553772415739886 10.395452275960398 0 0 0
705 1 0.8431529298759137 23.848365964381934 9.684212640851023 0 0 0
628 1 3.3114811255541663 22.817257819670882 10.723213060348126 0 0 0
1487 1 7.457382254829065 20.095645573788723 8.400271159428744 0 0 0
1231 1 1.1671975021784944 21.014875640597417 11.009300133918426 0 0 0
460 1 9.40327944161536 20.415497171075582 10.71210939236569 0 0 0
390 1 7.308795671166267 22.486953902095706 6.072892562716261 0 0 0
1690 1 11.426405365764307 20.767765346946657 8.358292055502366 0 0 0
651 1 7.086228770670437 24.31695016244016 8.329136708514335 0 0 0
941 1 9.375127431745018 22.45159553989317 8.909992759034587 0 0 0
1738 1 8.99711175344601 24.356532307461272 6.6967145137386765 0 0 0
944 1 9.467627140561072 20.108654260313173 6.49771693578575 0 0 0
1255 1 11.271856552173503 22.563829084492593 6.416019037649544 0 0 0
420 1 11.494234095040003 24.490697680156504 8.797399716288309 0 0 0
979 1 9.37390723141222 24.571586068427678 10.147892598205248 0 0 0
678 1 13.196364245208695 24.778410899404534 6.333540305456127 0 0 0
1687 1 13.56795208751282 22.523536757943116 7.935045228662798 0 0 0
186 1 12.018128161319341 22.133604902229326 10.547341103751766 0 0 0
1191 1 14.08105877977113 20.23537652988908 10.887975325892942 0 0 0
974 1 13.192465910790432 20.65956581623821 5.927167076073884 0 0 0
184 1 13.760008626245815 24.682906197134134 10.196373666441291 0 0 0
645 1 15.343417557532971 20.407433930846043 8.683717874366726 0 0 0
774 1 15.586928711767206 24.337747351905396 8.061088444832748 0 -1 0
81 1 17.654822485122036 20.141785712224383 6.422821458798024 0 0 0
969 1 15.414592536318207 22.052190903345263 5.831418601260482 0 0 0
1788 1 17.091320690447684 23.99511740386337 6.005639237000006 0 0 0
670 1 18.03982593313541 22.94616789929502 8.296119437335866 0 0 0
386 1 19.99333280206116 21.799151543607536 6.8076535277803325 -1 0 0
601 1 20.00926036402328 24.86145620947554 9.13735835547632 0 0 0
690 1 18.00030229838373 25.31816585202772 10.200106189166599 0 0 0
885 1 16.028795251487868 22.622602053220934 10.10010967778485 0 0 0
1503 1 21.103556622553803 22.437674322826677 9.021954176796575 0 0 0
1041 1 13.510946068951585 27.014970464087767 8.412713533035795 0 -1 0
911 1 23.39395945236807 21.11855723712132 4.407515184875034 0 0 0
1536 1 21.20759778441437 24.637501390719468 6.815056366008223 0 0 0
696 1 25.12292936119466 20.4749465510289 10.222725940961524 0 0 0
1466 1 22.91217142185526 22.070351010216175 7.159349384489346 0 0 0
1158 1 25.5419288525809 24.471947009325486 7.1068648453915735 -1 0 0
2180 1 24.70707231072535 22.682696416027916 9.101104712136276 -1 0 0
437 1 23.192752279045845 24.702623036199135 8.637118442095025 0 0 0
175 1 22.5245004325778 19.99578086071125 8.60405334397295 0 0 0
120 1 21.574484934966613 24.25034028583177 11.355368512858146 0 0 0
1114 1 25.884880785523286 24.54409467472067 10.47212259495619 0 0 0
963 1 31.94410459515573 20.25045474433318 4.2553137874528435 -1 0 0
824 1 25.023150352416707 21.120961087696138 6.655814461716772 0 0 0
190 1 27.567894008524014 22.657756578675937 10.390221549474449 0 0 0
1186 1 28.664556892003095 25.05528074482467 9.341083812534182 -1 0 0
1192 1 32.14433243296664 20.82477101695311 8.987076633512233 -1 0 0
980 1 27.56277205819852 22.622459277188117 6.852572541067538 0 0 0
372 1 31.712741189319395 22.45463328165126 6.501559738349235 0 0 0
761 1 29.94564967209621 24.797006128628677 6.270456242026318 0 0 0
1837 1 31.557903804294327 24.48881549557359 8.594775594670782 -1 -1 0
736 1 29.847410801235096 20.55940265784245 6.746799324639041 0 0 0
1745 1 29.6067015650375 22.42064056479146 8.557918800170981 0 0 0
1246 1 30.712068319797673 26.791673397841027 9.020395679183219 0 0 0
1727 1 29.394172970662332 21.01267445246072 10.93757630674622 0 0 0
976 1 28.756583147301583 26.60804182575677 11.526259655652341 -1 0 0
1189 1 2.5478962047898497 28.834660429067704 4.852239622913014 0 0 0
838 1 5.1589483400239535 26.175737732180703 8.190197036031938 0 -1 0
711 1 0.32501329735598083 27.819815577876636 8.308254964669642 0 0 0
51 1 2.6107043171306725 27.014482713428492 6.732049469070321 1 -1 0
656 1 5.527425445953001 30.96917499295704 8.287246199000515 0 -1 0
677 1 4.857706760968925 28.70551474314088 6.691509521582647 0 0 0
356 1 3.3895233390063058 31.215204564780123 6.387242703241921 0 0 0
1483 1 2.54740421177898 29.51673995269114 8.718338712990862 0 0 0
586 1 -0.046315066161898635 28.87066888164349 5.930257040676874 0 0 0
283 1 0.7591932676344167 30.958825553733167 7.278353389916098 1 -1 0
485 1 4.639883717090387 28.35593423443631 9.861044886247623 0 0 0
720 1 0.45358941506781464 0.5043964558923385 7.033818537694981 0 1 0
1400 1 1.9565968770970716 28.557789515140488 11.001522666114248 1 0 0
309 1 1.3705537457530572 31.197001129538343 10.229820381051702 1 -1 0
1000 1 5.049664996779241 32.017208295341284 11.130986382440128 0 0 0
1032 1 2.66653659872568 26.060335684787802 9.796046013952537 0 -1 0
593 1 10.961982513300422 32.70403366386521 8.123822968922935 0 -1 0
576 1 6.797739195709073 30.070068292904637 12.073796522086655 1 -1 0
783 1 6.491431525036093 0.2482385416399202 9.10566493254542 0 0 0
364 1 6.837884733460506 26.89722084594626 6.141970807091832 0 0 0
1157 1 9.136146160782241 26.474770637897656 8.244452422651298 0 0 0
1339 1 6.934467944279956 28.595891846965472 8.205042858287925 1 -1 0
1259 1 8.888196407331753 32.1742838459279 10.491049840615217 0 0 0
487 1 6.8438607235343065 30.461976713060125 5.782464512846993 0 0 0
1923 1 11.633603785413456 26.583722196062066 10.428391852892549 0 -1 0
491 1 11.255069592232509 26.79703005635298 6.293250075410125 0 0 0
1337 1 8.474936952639528 31.035283316349478 7.893747528964088 1 -1 0
1298 1 9.14567970680553 28.681000956683523 6.252390258455492 0 -1 0
365 1 10.855132597845337 30.9195995662165 6.354258069056951 0 0 0
140 1 10.87887271895236 28.84592722978736 8.473490516319407 0 0 0
1563 1 11.216190961318391 31.112785566537227 10.702223731969756 1 -1 0
212 1 8.65482335422622 29.37130922910672 10.175999021077063 0 0 0
1541 1 6.922922479039403 26.57215401149139 10.172874976632876 0 -1 0
713 1 13.024323822372134 32.81792968507886 6.050028352420617 0 0 0
436 1 16.11727174847228 26.81009969022233 8.913038519434503 0 0 0
433 1 19.948049062293535 27.0071619501914 11.024667200007832 0 0 0
265 1 13.324956116062946 31.653508668690897 8.622700836229864 0 -1 0
1175 1 15.228406976197693 26.892289785604955 6.223947063229719 0 0 0
664 1 13.13606785423777 28.86491110254582 6.700898006664304 0 0 0
1203 1 17.18420919478954 31.365275630357914 8.179012667251795 0 0 0
850 1 15.117234178169943 31.25958899865533 6.526747592326805 0 -1 0
750 1 15.12488722657759 29.61350417441266 8.653171263998583 0 0 0
465 1 17.010152265413797 28.995679153459207 6.904172887954838 0 0 0
1398 1 19.5077179163773 30.913406984110566 6.410594854350736 0 -1 0
1193 1 18.789110590142958 28.562099576337427 8.672537300895609 -1 0 0
717 1 18.197595689014573 26.050756765300317 7.453126311918974 0 0 0
756 1 16.208582230811928 28.312378575344486 11.614829765811063 0 0 0
214 1 19.56355181075216 31.830994577803743 10.89820430445922 0 0 0
692 1 17.266252382388902 0.40842291472634684 11.10140186268521 0 1 0
1403 1 13.099639420622221 29.241998531112177 10.283823027494028 0 -1 0
569 1 17.211269942876257 30.390171056822357 10.62571810648021 0 -1 0
1020 1 23.32992795272872 31.432211429718766 10.336996871481126 0 0 0
931 1 25.50464024803205 26.80619017802812 8.370627227909532 -1 0 0
1111 1 21.949717107691995 27.167321217078307 8.976990781234177 0 0 0
619 1 26.2411683260576 0.40437778267481306 6.527420854036222 -1 0 0
275 1 21.399231987354344 31.810033491776938 8.290023623849278 0 -1 0
740 1 23.37675001754465 27.150477028410414 6.624369240780484 -1 0 0
1265 1 20.204076212223228 27.610777983027273 6.668652737351452 0 0 0
1019 1 24.15493324104467 31.451587144947172 6.4849310625577505 0 0 0
946 1 22.15645657523176 29.442648021531497 7.023490783569191 0 0 0
1250 1 25.445918925842296 29.149844714217195 6.44134495255552 -1 0 0
1575 1 23.155683397275027 28.698112942739375 11.448938929322221 -1 -1 0
1465 1 26.616322870482634 29.985036000899868 12.046748292740936 0 0 0
789 1 21.039848541055104 29.824348181686563 9.898370085238627 0 0 0
424 1 24.408290271642464 29.542935111396517 8.693121958954254 -1 0 0
1593 1 26.31727548041866 27.562449214505534 10.994077643822745 0 -1 0
1139 1 26.87496704643303 31.92176895477647 10.222384933922996 0 -1 0
1224 1 26.938794820617296 31.301788919311285 7.463807312191534 -1 0 0
1566 1 31.77821932415723 26.592540154516357 6.563779183084156 0 -1 0
438 1 27.519940291676345 26.428683133021455 6.727314343410535 0 0 0
956 1 29.015757697418447 30.85157963288548 9.077493962365656 0 0 0
422 1 31.586643746931298 29.39151383221931 8.334079779422265 -1 0 0
544 1 29.09460314265298 29.36815137186727 6.851181455322623 0 -1 0
1446 1 31.35390600293455 31.953814064226773 6.663758621282406 -1 0 0
263 1 28.21786360350287 27.74963012233715 8.895056586148339 -1 -1 0
991 1 32.093849497700006 31.81074785178019 9.410547882481367 0 0 0
953 1 0.14897761475173427 26.0590590146413 10.753374599315944 1 0 0
126 1 32.3620989605619 28.73238992207701 10.83182595997954 0 -1 0
1393 1 2.4116830667544242 3.0155427350148702 13.51668282977642 1 0 0
972 1 4.891908465772942 4.535842300005008 12.953332819236453 0 1 0
92 1 5.8931931257998915 1.8332089105224345 14.44498604971745 1 0 0
579 1 4.611750187532857 1.3729719186574232 17.47577316724574 0 0 0
1096 1 3.456223427708697 3.3194538709759693 15.82707049348515 0 0 0
560 1 6.44525642444505 4.090794624595289 16.03605996103948 0 0 0
555 1 1.4648246698305816 5.508504179222122 14.4299265792705 0 0 0
1190 1 0.4077850120344216 4.05239889924122 16.577870550169 0 0 0
624 1 1.4811368419648072 1.2532620782428876 16.18220249352187 0 1 0
482 1 3.4191513253609367 0.8457889422853103 11.228323096801047 0 1 0
992 1 32.37825930347689 2.88101070445731 12.431202596153097 0 1 0
47 1 1.1067496650183177 0.7494231150055619 12.861946874151844 0 0 0
1324 1 2.738304932264154 8.297856763790037 15.607147763326717 0 0 0
1205 1 4.074350987140411 5.738769617638641 16.25341124417776 0 0 0
2295 1 7.810433706604603 0.9849272456514957 16.109098375292 0 1 0
176 1 10.431989380699022 7.3754264816917905 10.714635885663165 0 1 0
962 1 7.943254133611151 3.3795059562879555 13.552114604546263 0 1 0
1310 1 10.061126025120906 4.157894910228291 11.717248639844382 0 0 0
606 1 6.841453173773387 6.44165460018198 13.767123157472197 1 0 0
2097 1 8.672017576978192 5.568758198702132 16.110154503278917 0 0 0
1064 1 9.600001604677802 1.1518602267211315 13.796013191726114 0 0 0
227 1 10.40714773549506 1.6047824613339032 16.671748096915458 0 1 0
1478 1 12.693869140701116 2.3902090373128826 17.508288121723865 0 1 0
1358 1 12.387739831256695 1.77208491764126 12.708166533575772 0 0 0
865 1 6.241630372285335 7.112098026851226 16.25711480441343 0 0 0
894 1 10.702107874755997 3.336376214928681 14.54391366743079 1 0 0
1009 1 13.4282937622907 3.0925784295085377 15.016209568934746 0 1 0
511 1 12.349954443084691 5.476663621878054 12.474660785256289 0 1 0
1086 1 10.640762243701984 4.210868366066883 17.37457569716746 1 0 0
1023 1 14.219433376841458 0.1458929549949182 17.96585873586656 1 1 0
166 1 13.722032787980758 3.612124891128437 10.793483749417042 0 1 0
728 1 16.522232063814545 3.403952703874501 14.072206750347583 0 1 0
1494 1 14.937667825194106 1.0869277854172532 13.2148205900102 0 1 0
1057 1 15.798965494888071 2.347825672423236 16.420093955779326 0 0 0
688 1 17.75029650922365 1.0174478611329034 14.513604844599907 0 1 0
1345 1 14.886499295834902 5.260040250273684 13.432715784381196 0 0 0
1241 1 16.654171509158658 5.338306042444801 16.145789951589666 0 1 0
532 1 18.920478011465796 3.0543821824038266 12.692121469398849 0 0 0
760 1 14.959205849078153 32.829061069628644 15.28769193091056 0 0 0
699 1 18.28681543721192 2.860549178451429 16.23652749240412 0 1 0
1302 1 16.828011018082503 6.765874247817117 18.690578552760357 0 0 0
1395 1 22.522770420813202 0.3832275831668788 11.377240086352687 0 0 0
727 1 19.5338385881014 4.720220658994108 14.782684988753706 0 1 0
513 1 20.794534826130874 5.234750561559741 12.367384645516998 -1 0 0
63 1 23.591846879903976 4.401540561234751 12.346567295598705 0 0 0
1621 1 20.82091405100395 1.4130031842412922 13.70730821008586 0 0 0
1500 1 24.03532684220418 1.305788628200252 16.11656299706847 0 1 0
2546 1 26.43017385693076 1.9473879438756054 13.56672753883764 0 1 0
2064 1 23.548954786510013 1.6579339932609403 13.367053161361598 0 0 0
1351 1 22.687915716523662 4.094482060606597 14.87138117842279 -1 0 0
439 1 21.28136826309213 2.1528767538193647 16.14878781548434 0 1 0
2122 1 21.913000940554262 4.07791309260054 18.18961476480473 0 0 0
982 1 24.58572216835865 6.20101785252469 17.07747210803288 0 1 0
1850 1 25.688310091387354 3.2589660267123794 15.391479517312536 0 0 0
1377 1 25.028359913994233 5.8467453583265305 14.181667370032685 -1 0 0
1171 1 19.01936857587946 7.575684544731111 16.721940965617467 0 0 0
918 1 21.269770293237812 6.273260181615915 16.60493063921479 0 0 0
627 1 25.21725489278544 -0.18910742588419194 11.911764119627804 0 0 0
2101 1 27.110421484476152 1.7558127645763428 17.369862576674173 0 0 0
1663 1 32.372248998419366 6.377622680764602 12.523767114325032 0 0 0
1600 1 28.049632035292436 0.3724039819775785 15.22369335509485 0 0 0
1445 1 27.494057014085534 4.357808393988532 17.21434729379529 -1 0 0
480 1 31.873703696706695 1.050558286444625 10.78686712126656 0 1 0
164 1 28.138519589962772 2.9557590746962967 12.254934160856285 -1 1 0
1318 1 29.76649430118364 7.679181546854106 16.704252713123385 -1 0 0
1872 1 28.80542152816815 3.055631000831096 15.138858530003178 0 0 0
1389 1 31.577186003845142 2.9394986412439317 15.168690444577948 -1 0 0
188 1 30.2759080005733 4.2962094664121215 12.952822452124181 0 1 0
1305 1 31.875806597204726 5.659037160382862 15.261771370289697 0 0 0
818 1 27.847569031582292 5.3253638142343815 14.776293749265907 0 0 0
308 1 30.046263167554113 1.13659756896897 13.150754965791686 0 0 0
1090 1 32.14253771519067 0.607951906241862 14.676807966007875 -1 0 0
1730 1 30.290498105930507 0.614650069437018 16.550764905351866 -1 1 0
1940 1 30.164094309714297 4.776165038824285 17.470372105249417 0 1 0
1163 1 1.5916193142993202 7.962994763223138 13.208230861041844 0 0 0
111 1 3.6513997556450417 7.637333046856873 10.954414078427826 0 0 0
2050 1 0.8924096582480383 12.335511545737559 11.245966685483099 0 0 0
935 1 4.554575801520317 13.49531754914471 12.041932303528842 0 0 0
268 1 3.9774274012593285 7.002495569603607 13.787277437704928 0 0 0
1150 1 3.2922998695138515 10.070844987068725 13.59017711464514 1 0 0
848 1 1.6972130087589 10.413487562306326 16.084301976343948 0 0 0
1153 1 3.2689153320756414 12.660912423354768 17.010916009682862 0 0 0
1131 1 0.7048354491857498 13.108118846047644 16.120411214158565 0 0 0
559 1 4.915006446566116 12.46935416207379 14.596321427997529 0 0 0
1879 1 5.08118873469975 9.80688363601635 15.64865812810368 0 0 0
1700 1 6.35791583641161 12.076361346457357 17.393919699293942 0 0 0
1372 1 5.696878660882668 9.510873319769813 13.17886465484806 0 0 0
757 1 11.849549245369484 5.730041936215864 14.945322862812922 0 1 0
772 1 9.524527993626855 6.4234576937024395 13.301762951089236 0 0 0
884 1 8.524448725700633 8.751594574864013 11.661342754207508 0 0 0
1300 1 8.128628640541633 8.718850434496103 14.495112118959032 0 0 0
1578 1 10.503798782918853 7.609926208591061 16.037632432120493 0 0 0
2402 1 12.164698890643242 9.887625453418185 15.768762756262023 0 0 0
1137 1 9.08105566177524 9.982801151545361 16.494675762078018 0 0 0
1029 1 7.405217807245134 11.189816047877711 15.12967028599016 0 -1 0
216 1 9.48762551616981 11.405407614139213 13.165864184535302 0 1 0
582 1 7.492793793444819 11.475553650378687 11.2845078163207 0 0 0
1038 1 11.117470100644162 8.81853152749063 13.311809739388138 0 0 0
1361 1 8.63928151996993 7.779109152274666 17.871636645588364 0 0 0
1950 1 13.191038944772142 10.262591643636584 12.271309621569706 0 0 0
841 1 11.210087268317132 8.944817229004492 18.026031196548747 0 0 0
1349 1 7.795302121355326 13.82483752964853 15.861957323747161 0 0 0
1914 1 15.511193863489954 8.020590896500293 12.886945528054525 0 0 0
641 1 18.710855106174616 9.846978162893166 14.958679564168095 -1 0 0
1842 1 17.501831370156307 7.101608563049104 14.06297293875288 0 0 0
866 1 13.425898710143786 7.758321039282741 14.063696832946386 0 0 0
629 1 15.120092762607516 10.156079112178658 14.432103421761672 0 0 0
1464 1 16.081269593220235 8.294880239129212 16.198867891348186 0 0 0
2421 1 17.515522762914493 9.851045802701798 12.711030904859964 0 0 0
1534 1 19.400379989959546 7.676573810852913 12.054634932478248 0 1 0
1787 1 17.80788723587783 9.816649389657144 18.1707679390363 0 0 0
1371 1 16.96309070375568 11.308505070377468 16.152369987571312 0 0 0
1752 1 16.6534777591856 12.351929061822823 13.697663545095873 0 0 0
588 1 13.860589597038071 12.280319115087185 16.683913803360657 0 0 0
1327 1 14.725908643380604 9.838042114031408 17.56760688593144 0 0 0
834 1 20.836474353536918 7.298896718057549 14.113019436389893 -1 0 0
536 1 23.24962806215542 7.632362899593562 14.897051810999551 0 0 0
1430 1 19.485777465488496 12.086876077473727 13.532906938098813 0 0 0
2173 1 24.916490889760208 9.369232059433857 16.083093660533624 0 0 0
1316 1 24.345695267310308 12.596949375646993 14.94101611646057 -1 0 0
1276 1 21.1229003739724 9.590531188568898 13.476625878644263 0 1 0
1273 1 22.208386959514545 12.082371605431268 12.91898117327424 0 1 0
1711 1 24.54919803744192 10.084425070746226 13.612301109321773 -1 0 0
1376 1 21.485283065605334 12.545920211048385 15.61516380701236 0 0 0
1773 1 19.317670587349838 11.639299396142466 17.33332696454563 0 0 0
1828 1 20.901611324796345 9.723699200781322 16.153210826745834 -1 0 0
837 1 29.79200001121217 7.158429226927307 14.066468330625774 -1 0 0
1510 1 31.909495056884527 9.163051252141438 13.548489674335903 -1 1 0
1598 1 26.761861862895437 7.251782580504305 16.050656067883356 0 0 0
873 1 32.263278435136606 11.351700311536446 16.765868963316155 -1 0 0
778 1 31.0759505331911 12.730401468195254 14.665102746358777 -1 0 0
1607 1 30.1064748326058 9.919553756506676 15.064991414043625 -1 0 0
594 1 27.02804036688673 8.763517268509869 14.029915856153904 -1 0 0
899 1 29.035358034860725 11.650874258409528 13.364958106737134 -1 0 0
1888 1 26.99182212221606 11.17888815906995 14.980384469133355 0 0 0
261 1 32.8068843736201 8.56282564995764 15.741745375327653 -1 0 0
1155 1 0.7166627338169159 11.157173798418777 13.673031001756357 0 0 0
1726 1 26.17214946154478 13.570498525168514 13.053224728024102 0 0 0
1099 1 28.717095109441704 13.101092044508885 17.217266838405408 -1 0 0
1604 1 4.933857114172628 14.593285806580996 16.06859881374794 0 0 0
810 1 2.1442632162253767 13.068452491220816 14.002893774954158 0 0 0
564 1 32.93308904761938 14.18121340432931 12.721430327298878 -1 0 0
1356 1 5.5397923251293255 17.632665959295853 15.961309874974145 0 0 0
1072 1 3.6543116615790123 18.306422559034832 14.478240646686768 0 0 0
65 1 1.8228492031818713 15.83355233169293 15.145896508104455 0 0 0
1441 1 2.5517471070852324 16.005974443685314 12.222769012465607 0 0 0
403 1 4.853417594740497 15.765623381627448 13.745565840358838 0 0 0
1102 1 4.637835478906497 18.35068302573426 11.75685533146227 0 0 0
277 1 1.4522343269191393 18.730362918841507 13.228552251035056 1 0 0
631 1 6.65567781882681 18.975948307618765 17.83066088961635 0 0 0
1581 1 6.877459368923352 18.20839144982768 13.34971517173775 0 0 0
1731 1 5.336813182529575 20.599392445897234 14.705004507914138 0 0 0
853 1 5.224829660821472 14.080922144736038 18.712455677028526 0 0 0
1156 1 11.847572717324567 15.196961081211468 11.487126145201652 -1 0 0
1125 1 10.00263428312432 12.480301824872816 15.696534105322522 0 0 0
896 1 12.102254345806362 11.86568681687003 14.063485129709795 0 0 0
1173 1 11.53610676523015 13.964219868833045 17.642902331434353 0 0 0
1481 1 8.461045519209689 18.077469613411456 15.969624942921673 0 0 0
1479 1 7.8890860014333 15.892613839190874 14.404149663944 0 0 0
301 1 7.254572461774172 15.860588800794226 11.663811485317476 0 0 0
1768 1 7.11211809993385 13.48928189000067 13.267935519701409 0 1 0
1613 1 10.943744080242983 18.853349120592053 16.098042783208744 0 0 0
722 1 9.895426209967374 18.960546317646045 12.881986472662657 0 0 0
1513 1 11.01489647060495 16.655330887280865 13.865442387292088 0 0 0
1177 1 12.518473765094525 19.246213843837694 12.757416947916361 0 0 0
1366 1 10.381309420482701 13.960472647489103 13.402316608391791 0 0 0
1331 1 12.615701937599932 14.529409611485677 15.32496194737779 0 0 0
1006 1 10.013337871856834 15.46054338484407 16.257450528074177 0 1 0
715 1 13.878129004521703 17.32740805995366 10.71300236204563 0 0 0
1091 1 14.327063656607795 12.922172210358239 11.726177540141096 -1 0 0
763 1 18.78900092496344 16.886318622327735 11.679374077753865 0 0 0
726 1 16.604052552463845 15.867899670652262 11.07269858264445 0 0 0
662 1 19.383062667136052 21.15645030472357 11.428872785498866 0 0 0
1062 1 16.007720444422155 13.672949545364565 16.098556018250836 0 0 0
845 1 15.763551472565661 14.87009736413657 13.698074614550006 0 0 0
1407 1 16.56194524397586 21.234016834014756 12.2640083972481 0 0 0
180 1 13.941204405303694 16.412525264982964 13.325106850918878 0 0 0
1689 1 15.647685227624555 18.506872299170695 13.154458047442716 0 0 0
332 1 14.602360182414001 16.103524478365173 16.136979276891854 0 0 0
1408 1 18.05466501674838 19.29307280867069 13.817920806614508 0 0 0
697 1 13.515797790965633 18.41410329356778 15.513617593068279 0 0 0
147 1 17.309843777290983 16.889341223148556 14.919194479144203 0 0 0
1460 1 16.03477058056525 18.97782589500263 16.256565168550484 0 0 0
2215 1 14.724183900484249 20.706008785019215 14.03323974562746 0 0 0
1401 1 25.18348488145613 15.60895510860975 11.364211196105753 0 0 0
1004 1 23.809461828780716 14.440891094860417 17.00702202756682 -1 0 0
1346 1 23.44443312596982 18.33216350491506 10.677501467633974 -1 0 0
1910 1 18.71398594008637 13.897585025555088 15.581480896470323 0 0 0
1081 1 20.516918767479236 17.372421174705845 14.20291495407706 0 0 0
650 1 21.049200823291187 14.786393713949382 13.26996636854661 -1 0 0
451 1 23.791533663787046 14.852824498932288 14.418953903565207 -1 0 0
1915 1 24.38095881555656 17.14796474036095 15.80560517475438 0 0 0
2271 1 23.559516896058316 17.30201908029336 13.22469889044459 0 0 0
1558 1 21.4409235761904 15.593651896655429 15.712801691485286 0 0 0
523 1 25.912764326678026 18.094869280056447 12.072188279741072 -1 0 0
1374 1 22.043306934555947 19.02713922800214 15.617841972251448 0 0 0
1949 1 19.04395935001945 17.559152502732015 16.824295180952117 0 0 0
1151 1 26.07879056581204 16.230860480955563 13.888903853436796 0 0 0
928 1 21.333953000808425 19.611428850429952 12.723283590117253 0 0 0
355 1 0.664055930177272 18.035782545854314 16.01354752904873 0 0 0
327 1 32.11469984041667 19.446589376562358 11.93031825865333 -1 -1 0
1245 1 28.820056777300042 18.643640186078603 11.604776266013683 0 0 0
1095 1 32.133758139939374 15.372744983991318 14.704109697065538 -1 0 0
1470 1 27.773568650382483 15.990104092295105 11.77268427377034 0 0 0
1433 1 30.389343752803565 15.005070219289074 12.401459301362184 0 0 0
1784 1 27.353856609162612 19.38618100366888 14.100326271597808 0 0 0
861 1 30.786059455762853 18.981882743397613 16.841545031532835 0 0 0
914 1 32.32175306520253 16.911958748625544 12.777016990653188 0 0 0
26 1 29.59490979915298 17.49514017376039 14.209469632982415 0 -1 0
1471 1 30.565304885590738 16.327833138413133 16.600429640045633 0 0 0
854 1 28.69339137788392 14.540274487891084 14.470661890087898 0 0 0
1854 1 27.622486100913054 17.04531119168796 15.821941443849814 0 0 0
521 1 7.364545091142141 22.600980218568946 10.638417954875363 0 -1 0
814 1 3.3400656500372623 20.811075391404124 12.973753324096046 0 0 0
405 1 1.6939132888942703 20.762970423410984 15.694424094706417 0 0 0
798 1 5.524927433384304 22.891982959145377 13.012625428618014 1 -1 0
684 1 0.3495912021834485 21.630535687228534 13.494939248147586 0 0 0
1154 1 1.6623683051371128 23.557117402591402 12.352079602535133 0 0 0
993 1 3.158119173827419 22.777191183868904 14.73528266856496 0 0 0
1115 1 3.8549879866191312 24.78411098114041 13.379226320857386 1 0 0
1252 1 5.687090408284884 26.330120636217664 14.8197334345618 0 0 0
913 1 1.1447880371306203 24.830805168907915 14.9588568035453 0 0 0
1512 1 7.370971659629088 20.775056761157394 12.746114646412888 0 1 0
48 1 7.847089927722632 23.41532600653827 14.7947278023517 0 0 0
1475 1 7.220606174108519 21.25049345179574 16.842548918015186 0 0 0
1127 1 3.6261511053880153 25.86631907690815 16.45009356682944 0 0 0
568 1 12.321611460977174 22.17967931651236 13.323699494869432 0 0 0
1906 1 11.445303257227906 21.326057746101736 15.59924917317914 0 0 0
710 1 9.049797114922004 20.317920120931284 14.993218392530473 0 0 0
2289 1 7.90140770517694 25.267286512863848 12.546879197662966 0 0 0
391 1 9.752422638112865 22.516606170958756 12.556606150074536 0 0 0
967 1 11.906106087689764 24.826017644993062 12.124558296503247 0 0 0
1088 1 8.114871599802246 26.131027344958717 15.690453990135913 0 0 0
1227 1 10.42300834835674 24.34963763896716 14.546872996145554 0 0 0
1334 1 13.221698446748226 25.67354938303548 14.73243794494056 0 -1 0
1508 1 5.67102628796803 23.60761432655059 16.30550767498696 0 0 0
518 1 9.738530828608964 24.183006057116945 17.124580450329017 0 -1 0
1258 1 13.645278740716574 26.454202535065978 17.082234975566152 0 0 0
1332 1 12.564209890744541 23.314906584647172 16.218004785156243 0 -1 0
981 1 18.87184979433328 23.643110233262757 11.896229501409888 0 0 0
1880 1 16.973175420411508 18.639840508199317 11.17380008679895 0 0 0
916 1 14.569021744090946 23.240208821432184 12.66751280486311 0 0 0
1260 1 15.294227091109642 23.717198884805722 15.295666878516172 0 0 0
1628 1 15.899996411191832 26.686576696735173 14.503437383043353 0 0 0
1236 1 15.717951893065134 25.595558809276337 11.647240260184212 0 0 0
1497 1 19.29174190285167 21.629029279036597 14.146964387145333 0 0 0
1759 1 17.06209685361983 21.44448428290753 15.543160751176146 0 0 0
1012 1 20.093510524836006 22.93787917433547 16.420167855059567 0 0 0
1756 1 17.80191010465289 24.3525208044494 14.472506006039083 0 0 0
1778 1 18.709458065640543 27.210057053575255 15.768122219057346 0 0 0
843 1 20.347089733935686 25.095440180085102 13.99780000821914 0 -1 0
383 1 18.459685651726282 26.957543129211917 13.284155542176784 0 0 0
1543 1 14.629498817149951 21.168480640340576 16.954302100530974 -1 0 0
1073 1 16.48413957149391 25.662576333262102 16.992533807081163 0 -1 0
1626 1 25.30233102828659 19.85130870795126 15.801451810399003 0 0 0
1485 1 19.43792362455668 20.034753642582338 16.387559651856016 0 0 0
1499 1 24.133497666537345 20.400858922020237 13.301727668203526 0 0 0
1440 1 22.826494253654975 21.47616002983886 10.972846280838294 0 0 0
990 1 22.771472369292972 21.58914522362859 16.699151503540453 0 0 0
718 1 22.16623395335761 22.170592486372417 14.038743145903293 0 0 0
646 1 24.0105036401738 26.160575660058132 10.985645881831276 0 0 0
989 1 21.662042088122472 26.85270632985175 15.538590973954804 0 0 0
1219 1 23.22393258400803 25.129142973858468 13.54691242183267 -1 0 0
1261 1 24.353756480303566 22.80113456241387 12.34062927337005 -1 0 0
1138 1 22.575021768006735 24.30199451812374 16.0352517696194 0 0 0
1457 1 25.15644655752082 22.43381058011964 14.876242620674855 0 0 0
1225 1 25.812163761957613 24.96639014657232 13.006991670624165 -1 0 0
1694 1 21.76363760066241 27.15783053852723 13.002754833434587 0 0 0
1037 1 24.727671720830074 27.20252789149778 15.98541792036806 0 -1 0
639 1 31.988189204727558 22.096377363421 11.169398208444925 0 0 0
988 1 28.523525776658 20.651895232337534 16.59946925332046 0 0 0
541 1 -0.06131951649990322 22.603653485988932 16.419428842187642 1 0 0
919 1 26.219312665921535 24.638648488999575 15.544642748680824 0 0 0
921 1 30.697335427120784 24.66913986733906 11.016356402471386 0 0 0
195 1 26.841979102929454 21.253153069525787 12.272400711053038 -1 0 0
1254 1 32.25679026332648 19.916493171930995 14.67283930977612 -1 0 0
1729 1 29.783071002749466 20.559118208660717 13.901619976940633 -1 0 0
1313 1 27.81517114160269 22.369056380818165 14.502971884601708 -1 -1 0
1307 1 31.653887933338076 23.860821090325786 13.488097124461408 0 -1 0
2234 1 28.12450702347542 23.26245201067757 17.848382576392396 0 0 0
707 1 30.3454707989482 22.396793973906767 15.97413799136877 -1 0 0
827 1 28.728731778312078 24.14380454753646 12.639918870550586 0 -1 0
2561 1 31.909250042787818 25.519152463371288 15.727120310582572 -1 -1 0
1197 1 28.948990073027424 25.353519648553085 16.1091803980769 -1 0 0
706 1 31.058071497121123 24.577012136367223 18.07972795686587 -1 0 0
1695 1 7.8675525831091075 28.050963554525108 13.774576340685414 1 0 0
1223 1 3.5285007259702312 28.49262456190062 14.775188432128017 0 0 0
336 1 5.140281572558683 26.99804397858332 12.333353081332723 0 -1 0
805 1 0.5703446914826614 27.228022113720165 16.261758661336373 0 -1 0
739 1 3.7412652018413133 0.6606260585607662 14.388459970379389 0 1 0
975 1 1.7987384807208335 26.628171973092787 13.247793003053506 0 0 0
1824 1 4.233207923174296 29.378301935211454 12.329666005786697 0 -1 0
1369 1 5.83359514155485 32.50129154059179 16.14154014244195 1 -1 0
773 1 3.6711894743464115 31.215937162910038 14.800567081610273 0 -1 0
524 1 2.6140797643289297 31.694032456425028 12.552161458797329 0 -1 0
1661 1 0.9394224223382501 31.845623228424632 14.797882622061032 1 -1 0
1574 1 2.5665217149637374 28.10772756696077 17.89034816322728 0 -1 0
2018 1 2.4029978637460077 32.49464964546385 17.25685657167725 0 0 0
987 1 5.479058075830514 28.026214154438012 17.09319989557929 1 0 0
1831 1 10.943050921680888 32.51727990782041 13.082012355892354 0 -1 0
1498 1 11.89974670593417 32.88972455477063 15.806421904234924 0 0 0
237 1 11.162762591412179 27.29812532724201 17.02143948060339 0 0 0
1683 1 7.075211389555553 -0.21216525787887264 12.955011599746491 0 1 0
694 1 10.443740853906608 27.166567167003176 14.365333910652918 0 0 0
1222 1 6.329212038173935 30.087085562486152 14.800961575627506 0 0 0
819 1 6.917257565368927 30.345857723705723 17.255101921289533 0 -1 0
1674 1 9.265880721414671 30.228383231165378 12.648753813982399 0 0 0
1022 1 8.408438315590704 31.899842369477376 14.889296580714692 1 0 0
461 1 9.519603884977341 27.45588959229758 11.57995700131964 0 0 0
2021 1 11.702602179666345 29.270640553419266 12.652091699441893 0 0 0
929 1 8.72358958097043 28.648285189519143 16.16517517296679 -1 0 0
2250 1 10.604409359945782 30.31143881860972 15.100296135684173 0 0 0
762 1 13.731555397179822 27.166439131189335 12.26089546861315 0 0 0
1981 1 13.113641297929524 28.256761784580885 14.846029421426996 1 0 0
724 1 10.889588422840644 30.249180042890806 17.70412502713726 0 0 0
1429 1 14.898235670254984 31.53356619284358 11.215717358093075 0 0 0
1341 1 13.309841928647652 31.685622443031445 13.34362453187819 0 -1 0
714 1 16.77008460381625 31.995524908030255 13.136751621066999 0 0 0
599 1 13.43175407702507 30.556891078948535 16.00379944443272 0 0 0
1505 1 15.834186542197576 30.962779104128312 18.636561788863904 0 0 0
1288 1 17.49549783070276 31.671940738467267 16.124594126817655 0 -1 0
1010 1 15.000068125808431 29.662438441718304 13.692068480499362 0 0 0
1112 1 17.59100225236691 29.42547201641042 14.726922272864627 0 0 0
2044 1 15.973230406567101 28.840903791718453 16.79514056380024 0 0 0
632 1 18.80643876793147 29.447012988875397 12.48610549277606 0 -1 0
529 1 19.663155031496313 0.25209638317393185 16.238651809498084 0 0 0
324 1 19.472100230665127 31.88378757206391 13.77636527973492 -1 -1 0
1402 1 20.94010363338005 28.23445324277544 17.692882446175794 0 0 0
1309 1 20.22637100817004 29.229908696698608 14.653845972627545 0 -1 0
1237 1 23.830871567673867 31.174172123512633 13.074118641116181 0 0 0
96 1 27.367655009750884 26.973990884195132 13.922993668881718 0 0 0
1201 1 27.905899945969278 32.1401382111468 12.755671514288169 0 0 0
1685 1 22.968118969104 29.600514421104915 15.442814371244243 0 0 0
782 1 22.577433890728948 30.61754178987178 18.655278923417008 0 -1 0
322 1 24.437835365144956 27.761138886056717 13.211068482341833 -1 -1 0
1554 1 21.73787399329252 32.00551709173212 14.629693315605607 0 -1 0
1220 1 19.911816721799003 30.655141581753558 16.692844924664996 -1 0 0
1256 1 21.573142769027715 30.399279815664467 12.526607146765942 -1 0 0
1527 1 25.82830838526313 29.584081160064915 14.64348693497365 0 0 0
1229 1 25.284474442236423 32.93311939017217 14.565745788714192 -1 0 0
966 1 23.83500384202059 32.089639285115176 17.088189040379362 -1 -1 0
1551 1 30.25537746908192 31.74363948614901 11.621963584201206 0 -1 0
2117 1 32.96043137384056 31.74811858766091 12.20136278242571 -1 -1 0
1001 1 29.991764892457294 31.762318817240597 14.588594131340766 -1 0 0
680 1 32.43027107455576 27.03333160454215 13.11055654958056 -1 0 0
703 1 1.191106552793858 29.645767484393925 13.508348576712825 1 0 0
758 1 29.32176329146614 29.056883716019563 11.04777872034586 0 0 0
830 1 31.03283261047309 29.884712394478207 12.996489665901677 0 -1 0
32 1 27.526224309812388 27.755772847100413 16.448198303684354 0 -1 0
531 1 28.788914986191376 29.323480016411462 14.187360730986445 0 -1 0
735 1 30.132198744427935 26.10255436972637 13.793419219951847 0 0 0
1562 1 31.347645387754447 28.62210264496185 15.435276475990195 0 -1 0
1199 1 29.846181617779433 29.683993007118502 17.14598391606231 0 0 0
1075 1 32.074544781236625 31.232068872446884 16.078494294387916 -1 -1 0
1266 1 27.50686858337716 31.42984204791533 15.95794127556429 0 0 0
1691 1 4.157860336758978 4.0726612589745 18.282127007748308 1 0 0
2161 1 1.4700918842981567 -0.008191518536750313 20.04984744906402 0 0 0
2698 1 1.973942656702149 5.560241219930931 18.545295112588065 0 0 0
2053 1 1.3491688492680352 2.3792485804587704 18.820882119742592 0 0 0
1549 1 1.7793103970901165 4.5672845285834685 21.27638429776176 0 0 0
1994 1 3.7692728093528225 2.0445044275397577 20.164973877154846 0 1 0
1113 1 4.684399299885364 5.722912447130062 20.656261076917406 1 0 0
2917 1 1.6824433706531925 1.8133734319667856 22.198118274163942 0 1 0
1548 1 32.93510424542614 3.9766258093368076 22.466066452065867 -1 0 0
545 1 32.752082337283106 0.31316551692819383 17.992725048797997 -1 0 0
1816 1 -0.12643870928698211 6.691380174370898 20.71923309391849 0 0 0
1080 1 2.0816689290303403 5.9973944873156775 23.46129625732574 0 0 0
1539 1 3.1275861961613503 31.775354299334442 21.67458055349399 0 -1 0
777 1 4.093758788995113 3.8438656077806095 22.27620843662554 0 0 0
1415 1 32.99230319153873 0.7550626482390147 24.61952377552407 -1 1 0
1168 1 7.172853948930708 2.847421831041755 18.304782876443902 0 1 0
1829 1 6.379185430370391 2.6714748368520884 20.622641469431613 0 0 0
1267 1 9.958057695035317 2.562022772727668 19.53948087858571 0 1 0
1068 1 12.166756964548707 3.4900825911203324 20.369682994205245 0 0 0
19 1 8.579327853027408 5.16627830955406 18.957679977182764 0 0 0
2189 1 6.096051159879742 5.705425709753323 18.416041818777515 0 0 0
1743 1 11.457145102280213 4.070048303758388 23.307660342763434 0 1 0
1268 1 8.613027303870474 3.097560254367148 22.256206745219 0 1 0
1070 1 10.851540789048395 0.00211486497854283 18.938124356879015 0 0 0
1290 1 8.931519738819729 0.29560000795453845 20.842396185915216 0 0 0
808 1 11.035152596293335 1.2390891432840259 22.414336767922997 0 0 0
1817 1 6.674422345879398 5.0152525182375145 22.33999065004627 0 0 0
207 1 6.944522386204912 -0.113890491112532 18.590974572821516 0 1 0
1063 1 15.18741044055874 3.572242781102026 25.179759526890063 0 0 0
1353 1 9.404857955979757 5.713727316568156 24.210510390356248 0 0 0
1636 1 14.429578858563614 2.8531886208996458 19.199578687008735 0 0 0
1760 1 16.80682347791806 4.085422622805466 18.468719417127556 0 1 0
793 1 13.89017778387081 5.0032567516304525 16.772388396141572 0 0 0
1588 1 16.77392280769585 2.3498963032323545 20.64775175604178 0 0 0
1183 1 16.68007217213621 5.296987771165919 21.04849595099028 1 0 0
1617 1 19.66483531388605 2.644360746631161 21.85382633818227 0 0 0
1528 1 14.88851125903561 4.570912880562051 22.523216397838276 0 1 0
734 1 18.696862782039037 1.0802435927379384 23.87657551669132 0 1 0
1801 1 13.601509558267132 2.286833514550161 22.678381117623022 0 0 0
1774 1 19.396912054173825 5.0817404563752 20.591269057993223 0 1 0
1304 1 19.02958485028112 2.1228613452362106 18.918389284208732 0 0 0
1772 1 13.051614016702569 0.7189058796348818 20.6797078921443 -1 1 0
958 1 16.90318018397398 0.4549102538058067 18.366195267191447 1 1 0
2008 1 19.59020597215201 4.052694168108778 24.04359774164057 0 1 0
1542 1 16.906060860036817 5.876800778943605 24.218797292144796 -1 0 0
1741 1 19.36734580276268 4.793842632048835 17.77682854978058 0 0 0
1822 1 21.715109150423825 1.9106231137589513 19.388890536280023 0 0 0
815 1 24.35614249830386 1.4905542699162413 19.264947921138212 0 0 0
1409 1 21.107051677895793 0.45563067325589146 21.52826899250415 -1 0 0
1814 1 24.719815926751135 3.6290570711103816 18.054824327393884 0 0 0
2258 1 26.628730423928687 2.879443448824737 19.672624068556136 0 1 0
1627 1 23.405390071718088 1.4631582398298706 22.460832232125256 0 0 0
2354 1 25.42284532549541 3.4797870690676636 22.235201575254607 0 0 0
1969 1 22.467705181091006 4.00297917314449 22.0035953760095 0 0 0
1108 1 26.77538682918657 5.981031380040291 22.985427505233233 -1 0 0
1713 1 21.044748706218144 7.112351917846321 19.073093915733203 0 0 0
1323 1 25.767284336458633 1.5593528489469974 23.92372423971908 0 0 0
2630 1 22.822111403058965 32.117230765187564 23.63670519839414 -1 -1 0
319 1 26.827772455870832 4.263852008731985 24.850571021510547 0 0 0
1986 1 32.347160214294135 1.0684491073756506 21.708249817371566 -1 1 0
812 1 29.1914286019045 2.760339436526808 18.997255898268957 -1 0 0
821 1 28.03017148795594 1.766560401377878 21.986636076360504 0 0 0
1637 1 32.954059808071726 4.389750555259588 19.303403485243464 -1 0 0
16 1 32.75080446133362 6.526768960850713 17.62011054052768 -1 0 0
986 1 30.769812225743287 6.233627085535636 19.663556532590274 0 1 0
803 1 31.64644765682409 2.641397554370693 17.651671899471655 -1 0 0
1076 1 30.74048042638798 2.259735476459086 23.722232688312562 -1 0 0
538 1 28.063795215446188 4.322258568146756 21.19640279332058 0 0 0
738 1 30.042144080407343 0.7939654287725176 20.448016837941005 -1 1 0
325 1 29.27131908487718 4.475553130787075 23.56867956500051 -1 0 0
836 1 28.776005541486132 32.75447239493695 18.537880244291774 -1 -1 0
1381 1 30.753438686921793 3.453785309503998 21.11638895978821 -1 0 0
995 1 30.85685879928129 6.2607717486044105 22.580838589613958 -1 1 0
882 1 27.871989252198787 6.207407781692513 18.91423482804293 0 0 0
1074 1 28.664479555692182 6.993104778307927 21.457987033241473 0 0 0
1835 1 6.5561560870839255 9.205566995557923 18.04107595398043 0 0 0
673 1 0.4783028972276328 11.499821420623025 19.229981574873637 0 0 0
1065 1 3.4853296776631324 10.167903737099657 17.957189314201692 0 0 0
816 1 1.2168743194627234 8.568097551335494 18.287911861598413 0 0 0
1620 1 3.823279017066767 7.537170928465913 18.256777833150768 0 0 0
2346 1 5.007466632225629 8.637233596050892 20.44923410816014 0 0 0
1974 1 2.706404845184204 7.407570676289997 21.01924572910217 1 0 0
1546 1 0.8824097384367003 9.391305131988275 20.851096723427755 0 0 0
1531 1 2.8745485969252473 12.679465054058952 19.56440499007532 1 0 0
2057 1 3.0886656979792613 10.643546063114806 21.523722839718396 0 0 0
1820 1 5.555127686427442 11.958479647367586 20.26737880453373 0 0 0
371 1 32.13992444747214 11.476717036037211 22.11442611868306 -1 0 0
1387 1 3.73338639514094 12.678580988057137 22.46352794619256 0 0 0
1165 1 1.917031512850693 8.746690331652927 23.274893853543745 0 0 0
835 1 5.766737495517413 10.38305553141969 22.7871225686078 0 0 0
1391 1 4.886932997069029 7.888492604140401 22.897933418124758 0 0 0
2067 1 9.688061094644913 5.4773967668267485 21.42235362650864 0 0 0
889 1 11.627238879173202 6.333809100730834 18.695716665862797 0 0 0
1524 1 10.171212927444225 8.186907811742152 20.447747192939264 0 1 0
1869 1 7.919559696733407 7.723869875020072 22.762657586324252 0 0 0
2052 1 7.243968616355081 7.3395939294131445 20.347060983200638 0 0 0
2310 1 8.024804298145872 9.979539598193702 19.99417106911703 0 0 0
1844 1 13.167337948194076 8.379641795378712 19.893191993719704 0 0 0
303 1 9.266040832071477 11.886524864307066 18.448507762336956 0 0 0
856 1 11.290890837813297 9.9180224304607 21.66597020515499 0 0 0
1134 1 10.234319473080513 13.383098372292409 24.08697092780141 0 0 0
2244 1 12.278525190459042 12.305011167364196 22.439311093112543 0 0 0
1658 1 12.480459281871353 6.137939053004077 22.007903448953797 0 0 0
1047 1 9.635344427679042 12.387763691925544 21.42397199885076 0 0 0
1761 1 8.55272093047672 10.438072744740452 22.89489613512234 -1 1 0
702 1 6.998543264265841 13.098826526285908 22.54314662346079 1 0 0
1564 1 15.507919967168418 9.478095104250384 20.087203634389102 0 0 0
500 1 18.71814757325466 7.969835679408338 20.30450499054147 0 1 0
947 1 17.862921343020993 10.812032617945071 21.56148447688078 0 0 0
1781 1 12.112697187726985 11.044843315672333 19.035441847074374 0 1 0
785 1 13.607065978545675 7.455414497259882 16.804429444565734 0 0 0
1622 1 16.00684185673989 11.93963808315514 18.380274479525614 0 0 0
910 1 14.090759469154662 9.86019146970216 22.037204688647346 0 0 0
375 1 15.338391974513543 7.351497470202069 21.816746907752535 0 0 0
1103 1 14.155337462139087 5.826010638739739 19.28402085094566 0 0 0
605 1 16.46174279494847 13.278829701360984 21.651812111694397 0 0 0
1365 1 19.72720651807279 6.713132797274462 23.48550308266384 0 0 0
1696 1 20.335941868572295 9.097804865831641 21.684309221151423 0 0 0
1182 1 17.315464645347046 8.322232782368538 23.48165201433062 0 0 0
1363 1 14.3784437737952 12.307839654204422 20.191801212101616 0 0 0
1615 1 15.125469460031598 10.937849908389495 24.172262910726324 0 0 0
2446 1 17.539542061265784 12.133421795181537 23.861168867805006 0 0 0
831 1 12.80339827598316 12.273145955473014 24.997126604317824 1 0 0
1144 1 23.16451060796025 10.849444878626594 17.772368384837705 0 0 0
2083 1 22.936296109789943 8.271378988284605 18.16060778104526 -1 0 0
1438 1 22.994329270464227 5.783201535912763 20.214104494195336 0 0 0
1128 1 20.59199892080731 9.651968159661594 18.804128653418022 -1 0 0
1329 1 19.877936937751233 11.86836042827065 19.786113248312795 0 0 0
945 1 22.026707066425267 9.58133667615463 24.0943294403544 0 0 0
1956 1 23.518052275389117 8.434161995935241 21.387957563889593 -1 0 0
1247 1 22.48845988808706 13.000866373479369 18.971405626117967 0 0 0
1049 1 22.20506359973508 10.792897576782252 20.9927365981986 0 0 0
1221 1 25.92537833661561 11.871813211348792 17.523242064765398 -1 0 0
1572 1 24.425081135513484 10.878419299152633 22.72156422706826 -1 0 0
2154 1 22.162119582721168 6.923735207798991 23.014876018169577 -1 0 0
396 1 20.482084496154215 11.673855449485002 22.93251785228227 -1 0 0
2147 1 25.072945285047762 7.775246744425406 23.341089757283015 -1 0 0
909 1 31.514039814773547 9.112621372689308 18.23498944923102 -1 0 0
1449 1 28.108740406249513 9.881287878598268 16.858062489569427 -1 0 0
1779 1 32.7309704907456 7.682727029790166 23.11325177895404 -1 0 0
527 1 25.565373754674685 8.630964790999421 18.783417828417665 -1 0 0
1321 1 25.48487231967922 5.398134470614646 20.26083486271789 -1 0 0
867 1 31.62865358956337 13.955803698487124 17.10354047665529 -1 0 0
2461 1 28.755231311861067 8.713373516564227 19.360968255647656 0 0 0
1612 1 31.284774713649217 9.001205903656945 20.76891034440769 -1 0 0
477 1 26.39325665605841 8.865523307370157 21.430806898717808 0 1 0
351 1 30.00786279648735 11.036839435593976 18.861697786681834 0 0 0
1703 1 29.034228960026276 10.479225194016653 21.664189017301837 -1 0 0
1417 1 27.229473312781252 10.904598474750644 19.34160990307414 -1 0 0
1673 1 31.546976069345977 12.10689008308141 24.526641234851205 -1 0 0
2013 1 31.83908913459129 12.877247739446943 19.73814896284536 0 0 0
1890 1 27.927274330490903 8.836583300779127 23.960059941295068 -1 0 0
1340 1 29.252812888781275 12.782237257018792 22.952077653415426 0 0 0
1026 1 2.846758373080229 18.68452563222746 17.03247727482782 0 0 0
1651 1 2.9576497678836846 15.296440742586777 20.81911505689779 0 0 0
1639 1 7.201548127851927 16.123795938617583 17.644977283620143 0 0 0
1702 1 5.7545423061925485 14.989292941064893 20.904034680412718 0 0 0
457 1 4.765831605738389 15.065949004497199 23.26015861912608 0 0 0
1791 1 2.5657365966132226 15.356548391973968 18.032559578251586 1 0 0
125 1 4.544025864614521 16.87305264716357 18.377297976404943 1 0 0
1655 1 0.901594508718239 13.376608543661696 21.42285400915213 1 0 0
1664 1 0.1518777164630524 15.831288110003044 20.906167925823816 1 0 0
1946 1 4.428723314298875 17.691315660985886 21.44562192678628 1 0 0
43 1 1.2545503578026438 18.28702105064591 21.85433080238259 0 0 0
1832 1 6.402323837632611 19.374575661205448 22.76718830629263 0 0 0
1251 1 2.113299986540842 17.77076178916645 19.460515346844893 0 0 0
1130 1 7.5953930133938705 13.432474529111287 19.5863716041849 0 0 0
1282 1 4.423566130623867 19.744643692809184 19.411579309063363 0 -1 0
1839 1 11.991762094372898 16.96211006324237 17.639594913885592 0 0 0
1362 1 7.230641038357044 17.64887555579213 20.484305540135846 0 0 0
846 1 9.380848999233484 18.466177940582305 18.5521607764011 0 0 0
1106 1 9.328730764193624 15.781597570811371 24.920307393040446 0 0 0
743 1 9.433010359950002 15.886997392507142 19.38186875954467 0 1 0
370 1 11.172674107467866 17.71143336323202 20.61723712380942 0 0 0
1677 1 11.59775906370568 19.68850089156996 18.545243033309657 0 0 0
2058 1 8.730784763257091 15.192891056035155 22.244661747345763 0 0 0
1164 1 11.318061809014193 15.449543667839995 22.575075362348176 0 0 0
2444 1 9.535706059113984 17.598949115283673 22.59598791983702 0 0 0
874 1 9.526786646272438 19.88506985900353 21.370362773653415 0 0 0
1347 1 16.63081414539487 16.10119710548757 17.89725241245821 0 0 0
1812 1 11.917821945325953 13.887812344628387 20.263127836375762 0 -1 0
600 1 13.345998085882723 17.544174174107027 22.710247690299408 0 0 0
1174 1 14.5828653797721 14.555924131577022 18.393554578359936 0 0 0
1902 1 13.42287371131456 16.31319179438474 20.123280251757578 0 0 0
1123 1 14.468706524793227 18.494446300415373 18.234590891419305 0 0 0
1367 1 14.329145734672684 14.505552947397678 22.16896537083006 0 0 0
1232 1 17.665746253036264 15.09877641816508 23.396765172721267 0 0 0
1141 1 15.342030723712494 18.127230649162005 20.76988249602328 0 0 0
1432 1 17.680635897453662 13.933575417779993 19.05930473003982 0 0 0
1648 1 16.886094712536984 17.792508351154037 23.27416915055185 0 0 0
1370 1 16.962862483971833 15.908058680313971 20.78111040478535 0 0 0
917 1 18.69342556925638 19.008768409387688 21.250761638245105 0 0 0
849 1 16.005327846301167 20.872601367554864 19.497805013806815 0 0 0
2371 1 15.125479217506102 16.305161087512417 24.336395870914615 0 0 0
1301 1 13.32259606735009 20.06872942762438 21.1646512228441 0 0 0
806 1 24.484839273808085 11.083436375771436 19.801162815558918 -1 0 0
2326 1 19.2816140755999 16.62981899501882 19.327895682638022 0 0 0
1719 1 17.313946798706866 18.46145917299421 18.87247334550974 0 0 0
1388 1 22.461030821793603 16.101751943358142 17.9203772609577 -1 0 0
1119 1 24.32728003224306 14.704025793249022 20.213072340640387 0 0 0
1118 1 20.294426365449898 14.144210495408549 17.795372920629777 0 0 0
1124 1 19.20137079386102 13.904784811468788 21.29769732084297 -1 0 0
388 1 24.23889294485722 17.673557873932523 20.2355816189978 -1 0 0
1629 1 23.994041171647424 18.927166155257236 17.94361088544696 0 0 0
1984 1 25.271235753887268 15.45229333519616 22.49319158754845 0 0 0
881 1 23.235747678245225 19.444437296433776 21.989710226759858 -1 0 0
2197 1 21.17952448687324 15.302629610619304 20.16384043382128 0 0 0
840 1 19.8573279056747 16.858925434963083 22.241669938359863 -1 -1 0
996 1 25.37045278569992 18.280433618980492 23.00836162555731 -1 0 0
1436 1 19.88345321738626 14.421712409416099 24.034443484581164 0 0 0
1903 1 22.94569977494677 13.46175538243799 22.339784408997595 0 0 0
304 1 25.777339390568827 16.445548258013886 18.1215659905132 -1 0 0
704 1 -0.18661317191388432 19.993187761534198 17.875306132915743 1 0 0
1737 1 0.6697261369279914 14.306847812148778 18.721061050694008 0 0 0
1056 1 30.96845040013095 15.764543318044128 19.612747077914523 0 0 0
1733 1 28.991606262610585 13.078094120383671 20.34845825898922 -1 0 0
906 1 26.818514019281608 18.8084418777616 17.926966964399476 -1 0 0
879 1 -0.18848379348764444 17.054950780670012 18.224082882261637 0 0 0
964 1 26.440566743179975 13.946003004714495 19.30216757795548 -1 0 0
1050 1 26.508156032715906 14.638440047512436 16.06507192348771 0 0 0
1570 1 29.36096912780964 18.69120364554132 19.0697615766815 -1 0 0
1405 1 31.88498899559709 18.269387162580447 20.51883049999301 0 0 0
1161 1 28.21587940095152 15.190066838798863 21.73566794642493 -1 0 0
1383 1 28.686463473544656 15.863089299350571 18.617867265371437 -1 0 0
1385 1 26.836210803380933 17.330144497320855 20.164120070228243 -1 0 0
1605 1 29.303900049926682 17.581540401381723 22.027894505452686 -1 0 0
1721 1 26.443609725814767 12.927146502337397 21.842787284174726 0 0 0
1704 1 31.355766712806517 14.485923151661481 22.24189099588135 -1 0 0
872 1 4.0804474060222 21.348294998592955 16.857519392490318 0 0 0
1983 1 2.9987524862882506 20.240142590840275 21.507825046283738 1 0 0
1148 1 2.224561599622364 21.201216633490834 19.010690427057526 1 0 0
323 1 0.41083058592103666 25.319519931666242 18.244280119454697 0 -1 0
1404 1 8.043788099121441 21.837118943201403 22.57835605138477 1 0 0
1918 1 6.259346670517564 25.491762535134303 18.223060033029256 1 0 0
1146 1 1.8294499039542733 24.349661117720558 20.793401090454424 1 0 0
1643 1 6.060976585964599 22.954154975508 18.85473343014608 0 0 0
733 1 2.252459865303752 23.495895003765852 17.9811588827716 1 0 0
2596 1 4.742420799915648 22.171109984169487 20.875950904864922 0 0 0
1427 1 4.864168870091782 25.039161010906263 21.18106479303696 0 0 0
2969 1 0.1749734678406021 23.575780149498062 24.206134080701826 1 0 0
1944 1 1.0698649880743671 21.8247837224145 22.211506727796476 1 0 0
1472 1 3.935157651221266 24.75523680192083 18.987278158984495 1 0 0
1051 1 4.476089025050357 21.047134935936132 23.56235296870612 1 0 0
609 1 6.801730024788876 20.532521131063458 20.11225762015177 0 0 0
1821 1 10.014982070262226 21.453156388640505 17.749024811203338 1 -1 0
1742 1 8.595010643848802 25.256032509764886 19.534462113492708 0 0 0
2320 1 8.262489452095009 24.27858210402754 24.588871939898272 0 -1 0
655 1 7.511999466809334 24.372691722864158 21.77127309240694 0 0 0
940 1 8.746297550140602 22.439795649156324 19.865809805229546 0 0 0
1243 1 10.195064744608304 24.274961550455416 21.39404555870618 1 0 0
1997 1 14.66726063183519 22.42659059645077 22.988040973675687 0 0 0
1018 1 11.408079635349681 25.030980484875446 18.544816178596875 0 0 0
2114 1 11.422647886852317 21.969844527782737 20.32757683623076 0 0 0
1962 1 10.905161798177865 22.330825099525573 23.09240382422174 0 0 0
1364 1 11.068279836207305 19.473840947210274 23.385580403628 0 0 0
2056 1 10.82913231533285 24.959005982029296 24.237692165987678 0 -1 0
1021 1 12.950190733824975 23.89863593171451 21.260405499219043 0 0 0
1100 1 10.368731176834798 27.286154249144445 19.66453963768902 0 0 0
759 1 8.093963532335696 21.96854380311353 25.391017401807176 0 0 0
1328 1 19.405055733988085 25.27763526061781 17.34393186453612 0 -1 0
1654 1 14.683594018675489 24.394409101753407 18.704643436033045 0 0 0
1809 1 16.039547479987927 20.10096102453176 22.592321749179366 0 -1 0
1458 1 16.062264998047834 23.5367528500478 20.86287767736907 0 0 0
1275 1 16.973288668092152 23.41343295150186 17.853199385488566 1 0 0
1007 1 13.536243965043864 22.053542667276076 19.06623409963834 0 0 0
2019 1 18.280343228104908 21.815736113803688 20.976611786357847 -1 0 0
952 1 16.585438918724098 26.93188961130902 19.12922437743805 0 0 0
1397 1 14.599644715452785 27.33198637308702 24.60600083256736 0 0 0
1005 1 18.555502607199085 21.057966902291454 18.535475670981064 0 0 0
1523 1 17.18369708035245 22.941642638460195 23.282119213142355 0 0 0
1846 1 19.020936373501154 20.938665681716966 23.433101658623094 0 -1 0
2085 1 18.253647135712264 24.899517784134563 19.61368310921007 -1 -1 0
1762 1 16.103048867970784 26.611425743752676 21.7952886118521 -1 0 0
1766 1 14.328466370889243 25.083250224965308 23.602877983091496 0 1 0
1295 1 18.148318867854357 25.25506032811966 22.941214945423408 0 -1 0
2435 1 22.872936540215324 20.73162847519404 19.697828919727332 -1 0 0
1308 1 23.447964547259748 28.288228063451257 18.361762420505293 0 -1 0
2535 1 20.705947159792412 18.87018497027844 18.86665690079674 0 0 0
622 1 20.213561111770456 23.166264629957535 22.901970396228066 0 0 0
669 1 25.504205687133364 20.13919355793969 19.973745366316773 0 0 0
2741 1 20.566216714911203 22.722796104732467 19.52987214787316 0 0 0
592 1 21.05878351897532 20.505882437073556 21.270522258658545 0 0 0
1686 1 22.311416736480588 25.915805643921797 18.183519173368857 0 0 0
951 1 22.88743703724018 23.279988173955193 22.49301769257198 0 0 0
476 1 24.047507760391582 25.417048461768157 20.5445504578574 0 0 0
2016 1 23.004209511129833 23.536227081910074 18.83125227604701 0 0 0
2068 1 25.418188022706754 24.785934837941195 17.998787608428994 -1 -1 0
1459 1 21.141001792153386 25.22854730167783 21.033649662145184 0 0 0
1160 1 25.43675138723992 22.758253266087888 20.430903758430055 -1 0 0
1455 1 25.331966883439737 21.045327485412432 22.741412134843156 0 0 0
2362 1 23.421122171156416 25.95281110449818 23.068885888446577 0 -1 0
1477 1 25.540545998338896 23.963058042808928 22.77484105657045 -1 0 0
2810 1 20.599906593471704 26.109193915444635 23.906642224906243 0 0 0
844 1 30.80675578392448 21.517852210230885 18.799270346382514 -1 -1 0
2523 1 0.25720643530111476 20.224947231587507 20.644359476027336 1 0 0
2116 1 30.75589468559784 20.641346883885518 21.22111013976344 -1 0 0
1932 1 31.823546200074308 25.855203096296496 20.750996018830016 -1 0 0
708 1 28.7736449582557 26.22453020055729 19.05162129149218 -1 0 0
1054 1 27.38861370571097 19.393498330433452 22.05455241515427 0 -1 0
971 1 0.12735360240153096 22.58217032090245 19.848749378623978 0 0 0
1444 1 27.84606242010717 21.1445461358037 19.53122760783076 -1 0 0
1764 1 25.557934675321636 22.099148407809814 17.692199780376985 -1 1 0
1511 1 29.29881200331498 23.566538608720162 20.155047840857005 -1 0 0
2533 1 27.038986325098115 24.93274766758615 20.4125663546904 -1 0 0
1967 1 28.416428549196635 22.553135356573133 22.00411395812302 0 0 0
794 1 31.892605673084297 23.159321932562655 22.137513591326385 0 -1 0
1770 1 28.972272710148182 25.610755326788425 22.313216285897006 -1 0 0
1228 1 32.348085177523146 20.47276033046882 23.66631929369252 -1 0 0
1682 1 31.13898653586718 25.212822623298585 23.921171214125813 0 0 0
1416 1 4.194899942496568 30.418492833862267 17.706679684076594 0 0 0
1083 1 2.57359967044565 26.310803463396 23.108314363420714 1 0 0
1249 1 4.332425147011381 32.721301123099856 19.52918960511835 0 0 0
1943 1 0.9433247832131031 31.520837327121985 22.98263407549402 0 -1 0
2404 1 1.8756065603564405 26.771351763749724 20.023584697822955 0 0 0
1769 1 1.1626544777497123 29.719345983973366 16.286544926978156 0 0 0
1525 1 5.585214394905465 30.344065818731877 20.186170848403993 0 0 0
2284 1 2.085014456477451 30.53340541420493 19.782360181686624 0 0 0
1921 1 3.886473514107271 29.01194049550263 21.72824751754966 0 0 0
1034 1 5.619728753648499 30.619546763324912 22.6946279808241 0 -1 0
731 1 -0.018440289054757746 28.55384929475064 19.6561977861651 1 0 0
1744 1 5.979866790367816 26.514480123572127 22.874055412325408 0 0 0
1279 1 1.2739877753807134 28.689023661218876 21.861228997320577 1 0 0
1699 1 5.203384984640604 27.385358737081983 20.00286447352212 0 0 0
2765 1 6.4811628791410705 -0.19076411366864243 21.011520895306166 0 1 0
2241 1 8.683409924774288 30.86855787981055 22.270362195414744 0 0 0
1424 1 11.80659563357126 27.004802581906798 22.258712374249363 0 0 0
2210 1 8.832718528269641 30.451659561532747 19.949115486710475 0 0 0
1030 1 7.9217133864439315 27.852846426549334 18.50600264081069 0 -1 0
1714 1 8.743567282728694 26.717151758204427 22.489222286551012 0 0 0
1045 1 9.925674231176865 29.028939084197 22.447464846094096 0 -1 0
2023 1 7.2010645142553535 28.39155022053509 21.54730843131696 0 0 0
1955 1 9.331222483925396 32.22913898826409 17.452518866303713 0 0 0
1649 1 11.348280734666517 31.73166747580126 21.45421312499762 0 -1 0
400 1 11.804720582794515 29.414604587120195 20.36545188400476 0 0 0
2039 1 11.49543719188357 30.59421662098484 24.728000219197543 0 0 0
2759 1 7.3995519079921666 28.129665091406476 25.154050657163534 0 0 0
1489 1 13.208671145855869 26.853611242106336 19.87929232135033 0 0 0
1077 1 18.37260582873175 29.353625078329983 18.35228821646942 0 -1 0
1042 1 18.517831899476494 27.741893983163127 20.75934691117608 0 -1 0
880 1 14.326010388166269 31.050161722085996 21.744699719611642 0 0 0
589 1 13.062633978867892 31.456623868698912 18.90067760757261 0 -1 0
1972 1 14.723289341763602 28.32440414108372 20.788738880321155 0 0 0
985 1 12.90890906499287 29.03628377309753 23.347853845310976 0 0 0
775 1 18.768359914608993 0.022438393049626013 21.146548538246133 0 0 0
1454 1 15.700711405496351 -0.07455835284221449 20.570996748312897 0 1 0
1333 1 13.67792835760969 29.10540705669554 18.370924451110156 0 -1 0
1920 1 15.98268766000397 1.2201606219085284 23.320794318696883 0 1 0
2103 1 16.724855381780316 29.502872953538823 22.676779957995162 0 -1 0
1211 1 17.765134248358766 30.943822111957527 20.516215027573597 0 0 0
2233 1 19.345527667297496 32.35099750074287 18.69618326492126 0 0 0
1046 1 17.26599216917276 31.852677062226217 22.959233856311727 0 -1 0
434 1 25.469663041535537 29.862066714244435 17.078221210350804 0 0 0
654 1 19.755339483591566 28.708090447905317 23.12868502075731 0 0 0
1785 1 25.98265969880467 26.623079755867423 23.320376535810524 0 0 0
839 1 21.79638774668291 -0.0793804285126941 17.699896525315783 0 0 0
2108 1 25.05449886192255 30.57709912791237 19.587097847091265 0 0 0
1379 1 20.153810606154778 31.331027452819974 22.818390063572046 -1 -1 0
769 1 26.342017014327695 32.74604038763599 18.692341293978373 -1 -1 0
1281 1 20.350157947239367 29.985948539298228 20.263243467380214 -1 -1 0
1271 1 21.27984163379342 27.52200893765128 20.20305279439702 0 0 0
1561 1 22.800650290474938 32.64207548784446 20.13829682718738 0 -1 0
2135 1 22.808719915165575 29.529121830476182 21.71545612489397 0 -1 0
1085 1 25.872495914883586 30.026509900800235 22.022257009528296 0 -1 0
1104 1 25.08249802226403 32.94570359609834 21.566789712060146 0 -1 0
1758 1 24.688129448727942 27.859025295309348 20.976773320315022 0 0 0
1399 1 27.78716503729078 32.420723617369305 21.273658883814864 0 0 0
1618 1 31.436401928503837 32.0173194484114 23.81503557084104 0 -1 0
2785 1 28.871755662617645 0.10735893597906031 23.760784746555476 -1 1 0
1384 1 31.527124610768187 27.116591889353966 17.81326219171483 -1 0 0
950 1 32.65296630215769 30.659732607590275 18.64422323779864 -1 0 0
1188 1 31.750549151140888 29.577676403337442 22.02833395028713 -1 0 0
747 1 32.595668522506934 31.66066373948857 20.84507228932617 -1 0 0
804 1 27.845807067505163 29.462308700385172 18.63679017032414 -1 -1 0
1670 1 28.924658717687336 30.8866428752014 22.938569279466886 -1 0 0
1640 1 27.389079893922766 29.016361251907018 24.106265907839582 -1 -1 0
2442 1 29.7782255520472 28.272148097001292 20.340109227419454 -1 0 0
1520 1 25.902604350748934 27.342317709312482 18.81653510540983 -1 0 0
1447 1 30.241877430437462 30.952030591132658 20.06630138691737 -1 -1 0
2024 1 30.522583993270867 27.5786690311946 23.10790104499928 -1 0 0
1033 1 27.48038097243924 27.79950394395635 21.88986904662748 -1 -1 0
933 1 28.25372321088186 26.237533262355146 24.862629595611267 -1 0 0
1532 1 32.533259567421545 29.1358668376655 24.69828147549268 0 0 0
2298 1 32.316652933509225 4.7615658757244255 25.14965827027324 0 1 0
2129 1 1.2759845612642047 2.861049947131694 25.01423799942963 0 0 0
1537 1 32.03404567395044 1.7972296354147244 26.749025022204663 -1 0 0
1517 1 4.495058753253831 4.628758103678722 25.11944639616893 0 1 0
1557 1 2.102212154036981 3.0824643285804476 27.56278568032351 1 0 0
2634 1 5.106271084924306 3.752297118969102 28.332087247862034 0 0 0
878 1 2.4503928046416448 0.05936053822008538 24.307874767093566 0 1 0
2257 1 4.325960053020951 1.0913156059340727 28.49585844227213 0 1 0
2291 1 4.308051398932852 0.858279607730251 22.50528510279076 1 1 0
2040 1 3.990891679280909 1.9636759281991454 25.947895772347398 0 1 0
2150 1 0.5100895914590337 32.85680222169861 29.354463253858306 0 -1 0
2313 1 0.05216457784448506 5.295574583537761 27.381364861350484 0 0 0
2111 1 6.624937469261317 6.34438493004841 24.810841004447497 1 0 0
2585 1 0.351813878884323 2.6733213956322337 29.169635895944626 1 0 0
2230 1 1.34177112900993 0.619365495104475 27.14750140046789 1 1 0
1553 1 5.3898606005419465 -0.08874685837881417 24.33125600126232 0 0 0
2290 1 1.1820708624880736 4.1677827041660045 31.554288116125566 0 1 0
1013 1 12.16529624956155 1.8085871216342262 25.00381664212081 0 1 0
1799 1 6.512970321737688 1.1897108866289101 26.49930932538807 0 0 0
2028 1 7.37502739649558 3.863298329461994 26.298682321234743 0 1 0
2186 1 12.55200153758024 4.634074754273654 26.23889818536378 0 1 0
2424 1 12.757637874959144 4.989035063412196 29.205849709441136 0 1 0
2033 1 7.912438892471845 0.06339533077485317 23.578089100836028 0 1 0
1194 1 6.480592355007535 2.5774174587025453 23.457905380103753 0 1 0
2314 1 9.779305014495526 4.486786661253006 26.85785125827563 0 0 0
1547 1 10.195363945097336 3.491807229102442 29.755777224969144 0 0 0
1927 1 9.450385848711445 2.5931233182137925 24.79696945225286 0 0 0
1476 1 9.855798530880433 1.7743925143773074 27.32888135364701 0 1 0
2293 1 8.13205041619422 4.974739156442235 29.085839798742843 0 1 0
2152 1 10.448143909184125 6.137556634852715 30.60212438220254 0 0 0
2214 1 9.148162353137238 0.5699093494656226 29.401930144841668 0 1 0
2086 1 10.597020039950335 32.83907585420693 24.869248198950977 0 -1 0
2988 1 11.37190602514614 0.3657927798181831 30.30492453689325 0 1 0
2499 1 13.249987521656896 32.631935843267435 23.499364311068412 0 0 0
1753 1 17.431023708040932 3.421247472620529 23.160387499895908 0 1 0
1868 1 14.413546066182032 3.1535923896577045 27.553415938128914 0 0 0
2069 1 15.042647973426996 6.010345521827489 30.734018441134175 0 0 0
1011 1 15.60746104228414 0.8609189282251107 28.375572114122203 0 1 0
1877 1 16.87824844119888 4.09591079691331 27.494176799736476 0 0 0
1624 1 21.429532036916502 1.7747487063232141 24.372131779257078 0 0 0
1601 1 16.534206824517163 4.19258069866326 30.24974095849662 -1 0 0
1027 1 15.040857369530958 6.331076771158445 26.62572102720229 0 0 0
1060 1 18.95370236732699 5.430726152951208 29.476186928202626 -1 0 0
1287 1 19.47157911368556 2.586027864378644 26.908309103040274 0 0 0
1889 1 18.330204156978315 6.7731747494319645 26.080226668862316 -1 0 0
1239 1 17.03847539965081 1.7697481871304925 25.875626450453552 0 1 0
1819 1 18.232642871380826 0.5160762344087423 28.010899174586978 0 0 0
1931 1 12.553068920031926 1.1310101204337502 27.861107300990646 0 1 0
1185 1 19.981678927647224 5.060851067482425 27.183391888440294 -1 1 0
2397 1 23.960390642785345 2.737396248999371 25.568411480422963 0 0 0
2888 1 23.46986511505936 2.3745636334574263 30.011558312501897 -1 0 0
2396 1 21.977054327220007 2.3469178426239394 27.363643598544336 0 0 0
1894 1 24.94286886639623 2.5768253990660903 27.869811289180912 -1 0 0
1521 1 23.862666818209625 -0.09059162290156361 28.702043353751762 0 1 0
2084 1 21.408346530270126 4.241458725714455 29.912885153847128 -1 0 0
2007 1 22.043834016557962 4.79431001047798 24.8088408753576 0 1 0
1568 1 19.06484647944598 2.675560216459375 29.620158143345204 0 0 0
1723 1 20.869513262222064 0.7020057883932374 29.404819256385416 1 1 0
2611 1 25.83614918765969 4.703229958292678 29.956332947652353 0 0 0
1596 1 25.54357213414408 5.40620465711592 27.1000996260364 0 0 0
1979 1 22.412571993775558 32.93127653254259 26.73203129899028 0 0 0
1577 1 25.509057433587504 7.857549427974573 30.397244952134336 -1 0 0
961 1 30.40963223319846 7.090356629267351 24.984615349981276 -1 1 0
1348 1 29.741130021732467 3.8224625217833337 26.067006977086802 -1 0 0
1540 1 30.30409558440459 5.739440938507962 27.836184599089545 -1 0 0
1373 1 28.27779006512165 1.7108800343880712 25.467188471073094 0 0 0
2061 1 31.10824357029907 32.04060075728575 26.18774297719033 -1 -1 0
1911 1 27.43224402828557 3.9082708335606005 27.773656593008656 0 0 0
2137 1 28.516311078401362 1.5824620471676882 27.95075998546414 0 0 0
1815 1 30.726990698005988 3.13686859362044 28.840372157880722 0 0 0
1319 1 31.077335464770208 0.36975365319219755 28.77655773536835 -1 0 0
2823 1 28.607534307640123 3.883252533831554 30.32447728707027 -1 0 0
2368 1 32.46250264287989 5.756448115144023 30.047189914401102 0 0 0
1667 1 27.74417917759765 6.7820651622079104 28.82197925979066 -1 1 0
2212 1 0.988875877258951 7.245960411205143 25.48776063239653 0 1 0
1293 1 3.6602736184190596 7.530806966429402 25.36775045802412 0 0 0
1552 1 3.288707782554464 5.402792000447524 27.511649598009875 0 0 0
539 1 2.0390474780479586 9.461651082580879 27.123549904108902 0 0 0
2281 1 3.2098251655577874 10.23200340195214 24.78510744153837 0 1 0
2995 1 4.918527930859598 9.212017956468225 26.88891623852354 0 0 0
2350 1 5.977463342004122 6.339510643693263 27.996800768939853 0 0 0
2562 1 1.5625363403404822 11.800560481111816 29.46160372852827 0 0 0
2141 1 4.082962925373996 7.766677618884764 28.97971754861675 1 0 0
1826 1 1.0977638271712293 11.684153311711878 23.740059222690768 0 0 0
1590 1 4.731309669152895 12.106605782125474 24.907187661182963 0 0 0
1901 1 2.8631719637170883 12.106073036177275 27.27329931235494 0 0 0
1840 1 1.2226458091264418 7.311226072121282 28.92225739421408 0 0 0
2889 1 6.858329294931447 9.411221725065959 28.908151542027564 0 0 0
2456 1 12.336958802756403 6.615178649564255 24.701561464196704 0 1 0
2105 1 6.274837139139313 9.135049649226149 24.992276382661085 0 0 0
1838 1 12.467924120187572 9.668067897290983 24.153489532279398 0 0 0
1645 1 11.718873406025546 9.047695551589719 26.65868194247604 0 0 0
1647 1 7.5659692531857 11.871477217748195 25.45240750281902 0 0 0
1355 1 10.137707585906401 8.391444990469143 24.206226507253962 0 0 0
1198 1 8.456924648482412 6.914781832554022 26.810127365449848 0 0 0
235 1 11.536040135942859 11.311165241993479 28.193472418600365 0 1 0
1841 1 10.267388390266287 11.113227599890688 25.421872982951605 0 0 0
1650 1 8.599776269085739 9.762256900449554 27.06488176176077 0 0 0
2414 1 12.848281958330704 13.362214179706669 27.307314147997847 0 0 0
1804 1 8.410299167466661 11.827581800427277 28.270631111044803 0 0 0
2329 1 11.440012591506854 9.047376025845844 29.32673441624773 0 0 0
2433 1 8.894926040531962 8.124383492996158 29.582765217810294 0 0 0
2701 1 5.688826518089759 11.552663103614957 27.32772210033033 0 0 0
2010 1 5.837298596128886 8.015836153289456 30.878638842326723 0 1 0
2000 1 11.174910289671274 6.639157092936844 27.678928815413084 0 1 0
1609 1 19.350512130833213 9.58952845875137 24.523995112504796 0 0 0
1559 1 16.665637132559347 6.777491750227216 28.610905526707032 0 0 0
2014 1 13.492045654547725 10.412254694753196 30.53131405757879 1 0 0
2062 1 14.141678132143909 8.216867024026586 28.36528564844967 0 0 0
1335 1 12.811557679741906 7.470132123944908 30.779238516349178 0 0 0
2323 1 18.641661662673627 8.21262529338342 30.186869646139282 0 0 0
1776 1 14.685256775292311 8.235890893608387 24.37364794338627 0 1 0
1608 1 16.627150890637946 8.979438408591955 26.20029238090866 -1 0 0
1495 1 15.778961690633881 11.357697636255613 28.86859528698893 0 0 0
1040 1 13.823394004072584 10.5077344201318 26.701918880004072 0 0 0
1992 1 15.653266995115063 14.031711985098758 27.86217187424704 0 0 0
2130 1 16.141950997665877 12.139019082475745 26.297633913688 0 0 0
1697 1 17.88570017418556 10.924897230558374 30.132185585560617 0 0 0
2429 1 19.28072413901984 9.706295556988117 27.44758416181 0 0 0
1412 1 18.012487137991197 12.297755990328842 27.9226542353149 0 0 0
1210 1 19.24536774422065 12.078945215906904 25.62470701611947 0 0 0
2370 1 24.54960167922539 5.343422079688579 23.583171119493617 -1 0 0
2198 1 20.33050146383444 7.414352815028012 28.2446831570235 0 0 0
1184 1 26.811720445127744 10.867268889863142 24.06439175712033 0 0 0
1913 1 24.26591753853659 10.534625228487489 25.84395950742818 0 0 0
1595 1 20.89669672692953 7.820006745451921 25.727805420441417 0 0 0
1827 1 26.43129791022549 11.733658946203555 26.697971530378446 -1 0 0
1630 1 21.152308046247338 12.087560385970328 27.507379059141755 0 0 0
1917 1 22.807730826149008 5.11011976943445 27.706770062991946 0 0 0
1672 1 23.460562861946876 6.847385370661039 25.624311352486963 -1 0 0
1272 1 22.281450007531483 9.436366732065911 27.286725452056526 0 1 0
1292 1 22.444839399531862 12.82392452736698 25.62927268759234 -1 0 0
1623 1 25.5569193999889 8.17167470383452 26.275788294797547 0 0 0
1421 1 23.779099622025814 7.544894654009743 28.332469146891544 0 0 0
1589 1 25.998424470684274 9.692071552320463 28.44436861491994 0 0 0
1722 1 24.16670908135645 13.298689739493405 27.859838529177363 0 0 0
1885 1 22.139099828494288 13.352156224876987 29.938506728797467 0 0 0
2123 1 23.372163269619723 10.609042776871545 29.36787545732467 -1 0 0
1569 1 21.924943479326785 8.648739830045415 30.37628859406821 -1 0 0
648 1 20.96133064706758 10.910256597812205 30.280379334661685 -1 0 0
691 1 33.01125509845353 9.747142348251272 25.40144119834713 0 0 0
1342 1 28.071214596502582 6.560642289055506 26.035313953642397 0 0 0
2171 1 28.036062592885916 9.27729226358448 30.537203531963552 0 0 0
1294 1 32.15148441169831 7.698933969458735 27.49915310484845 -1 0 0
2003 1 28.64622067351641 9.08185402093787 26.956645191141753 0 1 0
1303 1 30.865936377731316 10.46842401016319 26.93925534823995 0 -1 0
1853 1 30.994600741628496 9.823028285798193 23.989160937364193 0 0 0
535 1 0.1808193072744972 11.889879233610726 26.70858216323519 1 0 0
1951 1 30.27322827949594 8.159851765372009 29.345195997069574 0 0 0
1763 1 29.09021969008014 11.596324339646216 25.413865580417742 -1 0 0
1989 1 32.63081455405461 10.062533000662787 28.933980915723062 -1 0 0
2306 1 28.672096245701884 11.033396307797638 28.692389859429152 -1 0 0
2227 1 31.290384627363082 12.762489252263 29.10928899141849 0 0 0
2662 1 32.690394583621234 12.488140123843104 31.384543434835575 -1 0 0
2020 1 30.392348414874203 10.836710365438366 30.69184688503963 -1 0 0
1928 1 1.6900584075719636 19.563477002124603 24.040377453946085 0 0 0
776 1 2.4549788642784454 13.88240175542325 25.36793798165812 0 -1 0
640 1 6.798679810836877 16.943440618996636 23.125359713200375 1 0 0
1468 1 4.733296787468774 15.475204387697824 26.446606680516307 1 0 0
2381 1 2.4907552786073106 16.090898532078004 23.462308874198047 0 0 0
852 1 0.6695263806390183 14.44465154052594 27.307937388154212 0 0 0
1725 1 4.859401566827945 17.90848481055319 27.487988222058885 1 0 0
1140 1 1.9465632001431115 17.15713799757014 26.394187828006185 0 0 0
1216 1 4.571075935294386 17.912354455523424 24.602635971149795 1 0 0
2196 1 0.3803043955599972 16.970969606134574 28.7040549383087 1 0 0
1179 1 5.684070070939797 15.703056913520786 29.420647337994396 1 0 0
1887 1 5.632875155023306 20.265033930885533 25.8511686966721 1 0 0
1851 1 2.3805403605999724 19.36986988776036 29.064747702320936 1 -1 0
2690 1 4.071830379402897 13.371381476402355 29.373037882655275 0 0 0
1705 1 1.3592726763850664 14.412028737351065 30.274092478837254 0 0 0
1963 1 0.28180009674284723 19.203556071918634 26.498181634055577 0 0 0
1652 1 10.147674524047558 13.818938701576329 26.60329927774844 0 0 0
1325 1 10.984599313645406 13.94927774077404 29.50008799404921 0 0 0
1926 1 8.314802968051811 19.203798277667055 24.65532145817393 0 0 0
1442 1 7.4094617869466495 16.92764196512911 26.29185470220732 0 0 0
1418 1 11.052026322037689 17.617793449602942 25.006513262738462 0 0 0
2054 1 6.8081952176913285 14.511168841701897 24.88928979292149 0 0 0
2626 1 7.200626960287135 14.373234782593057 27.621044960173883 0 0 0
2237 1 7.555943007602274 16.334057398698658 31.141828867108728 1 0 0
1226 1 10.983758063740384 16.22925160266548 30.522315665603532 0 0 0
2149 1 9.254513576501342 16.108611310292147 28.365344085104287 0 0 0
1482 1 11.880890047991736 15.98799624194753 27.558876947660327 0 0 0
1893 1 9.169743231677923 18.701776217015546 27.27499723444156 0 0 0
1233 1 12.135680059738224 18.909633990657476 27.473106847391723 0 0 0
1757 1 6.920107336705284 18.385977150299617 29.195065832706423 1 0 0
1671 1 15.186717982844025 13.73989353156478 24.585853101313862 0 0 0
2121 1 13.717514756987164 14.613518957661652 29.727762237527738 0 0 0
1834 1 14.572222434170968 16.47788271175498 27.464992149663118 0 0 0
2567 1 13.937587534571701 18.245261038221816 25.214605827305572 -1 -1 0
2419 1 12.623692348118453 15.15752969119035 24.872680249362894 0 0 0
1665 1 17.14546037277248 15.27455909745996 29.48306639306579 -1 0 0
1973 1 16.947247594844665 20.82031682778412 25.225873016884538 0 0 0
2145 1 16.82122884107887 18.017429171624165 25.981094395737774 -1 0 0
1240 1 17.152003466909857 15.27304549580228 26.094785883524626 0 0 0
1187 1 15.866448032682106 17.98954447779633 29.174003880752725 -1 0 0
2923 1 18.65902169087156 16.950672825602346 27.78511641979354 0 0 0
1586 1 19.500118264559365 19.866047853743673 26.115767731609814 0 -1 0
2002 1 18.05703694553825 19.51075659942717 28.424726214105366 0 0 0
2001 1 14.79235888001081 19.826600742512873 26.98839044998735 0 1 0
1215 1 22.662889402905964 16.43618302686286 22.120149305993316 0 0 0
1352 1 24.971544554434825 13.230088116584646 24.671616178893185 -1 0 0
1777 1 21.29014071465928 17.602817072025157 26.37618184055106 0 0 0
1813 1 22.18863833722161 15.799545506822744 24.732642869616544 0 0 0
3000 1 18.957785249376673 17.46917243799687 24.870475584465375 0 0 0
1235 1 24.875018926667426 16.84634696493438 27.62824080970911 0 0 0
1396 1 20.02365292861113 14.429815441860105 26.874913236877223 0 0 0
2077 1 22.634761808459672 15.500098096358828 27.202366832426456 0 -1 0
1675 1 24.784701332230114 16.362268384627292 25.042959343575163 -1 0 0
2217 1 26.47521366026377 14.776728901903557 26.77893060627043 0 0 0
1286 1 26.377407340582472 18.758235098360455 25.60949224632074 -1 -1 0
2617 1 23.379939517927813 18.787335968866813 25.420622630377412 0 0 0
1610 1 20.660840333016143 18.86174493654119 23.7175822999439 0 0 0
2239 1 24.390967497515206 19.902948694388108 28.333312577767266 0 0 0
1941 1 20.41477225050859 15.402962122789427 29.251180019823234 0 0 0
1606 1 27.460557199455618 15.890752520213255 29.047664433371263 -1 0 0
2618 1 0.1512902755587189 14.09881885439672 23.80615867727183 1 0 0
1976 1 25.174034548601252 12.598562283952397 30.678198428213246 0 0 0
1443 1 31.9222311513817 14.813719666426207 30.464091138335238 -1 0 0
1448 1 31.41329914470039 18.077051860083067 23.24338534446045 -1 0 0
1501 1 27.132844870795775 18.50171125755924 28.296057486025234 0 0 0
1720 1 27.68145628851071 16.80732911609007 24.123920895917944 -1 0 0
1120 1 27.357683039246616 14.23887602811726 24.2418840890108 0 0 0
1382 1 -0.14059630496161285 16.516343703264436 24.806049617805602 0 0 0
2124 1 31.592113171194892 13.983823969464586 26.528045495442825 -1 0 0
2138 1 30.66758684257177 15.40637381065239 24.41319428001685 0 0 0
955 1 31.210056860858185 16.224313395584144 27.55487149698356 0 0 0
1336 1 28.87803861360031 13.82786768615896 27.066031734078884 0 -1 0
2628 1 28.86888646654752 16.79009566379332 26.404752200356274 -1 0 0
2261 1 31.124905242052794 18.44359820558223 25.74460489783006 0 0 0
2528 1 29.456772454060772 18.08735143429901 29.30663576375005 0 0 0
2707 1 29.506314532970276 14.497146629119017 29.740219441439024 0 0 0
2705 1 31.540333525847842 19.33531340644185 28.055369367107293 0 0 0
2426 1 0.10999841208091715 26.635521539948268 22.38555819243013 1 0 0
1456 1 4.145044253535916 25.299313614749376 25.12420393810008 0 0 0
2075 1 3.0751016177125052 19.788736315399614 26.234305978766365 1 -1 0
1751 1 2.8146343291671974 23.1271201752256 22.981658323281998 1 0 0
2170 1 3.70483905746695 22.60580827334825 25.891340175318568 1 0 0
2427 1 2.259982994812032 22.47231896818777 29.012691353939083 1 0 0
1473 1 0.20017076107890847 24.116432772483662 28.84874843995369 0 0 0
1855 1 4.721834061307516 25.57935933725047 28.222057551350503 1 -1 0
1747 1 2.048108812754206 24.715863504907453 26.944135239074004 1 0 0
2486 1 3.614674572148054 21.23266959181703 31.158878403724284 1 0 0
2296 1 0.9050826937019495 21.764416326302275 26.028629408378826 1 0 0
2472 1 0.8114716033448637 26.279490295310637 25.31936098954005 0 0 0
2376 1 4.845869729066286 20.574963774885134 28.31136847765338 0 0 0
1451 1 5.685383262625136 23.726556306441246 23.701534412031318 0 0 0
1865 1 4.606244359375153 23.418793220410265 29.687868138985316 0 0 0
1965 1 6.013688264000307 23.16459785222834 27.502855269372397 0 0 0
1953 1 6.412930169081521 20.970107259799345 30.646620055362565 0 0 0
2308 1 7.613111801867427 20.789943312307823 28.087054690952872 0 0 0
1516 1 10.918146904359075 20.755741966421017 25.62379744385929 1 0 0
2363 1 10.142931843966142 23.32795561161289 26.614025930666543 1 0 0
1603 1 10.17533278514184 21.001340172688877 28.522105493871333 0 0 0
2473 1 10.125146045518935 23.555105751268602 29.303910127830292 0 0 0
2416 1 12.543437976149589 22.723290358034184 24.706925748355584 0 0 0
1071 1 12.723601007352405 24.36516679093092 27.537795033350335 0 -1 0
2223 1 9.862343398360755 26.730055935277864 29.15633545823008 0 0 0
1394 1 11.662987569477952 24.888916104446697 30.60469874513506 0 0 0
1514 1 9.468070049340037 26.114828383461813 26.695086024250326 0 0 0
2029 1 9.807676080665441 18.551026504209236 30.329517373592687 0 1 0
1908 1 11.882190804721342 20.078860845780113 30.357870785758625 0 0 0
1692 1 13.70008008987909 20.375329296813735 24.14063012430103 0 0 0
1709 1 12.86603838981572 21.62280195016544 27.45212537834118 0 0 0
1783 1 15.004115110241795 23.172869428922894 26.168239796500355 0 0 0
1206 1 14.767969909683192 23.761588256858175 28.96287467082129 0 0 0
1754 1 17.038015007885143 21.82730773055162 27.574418735650767 0 0 0
912 1 19.454959345901766 22.06615373358931 27.98395708426835 0 0 0
1583 1 17.42792553324842 22.115000446764892 30.516911414576615 0 -1 0
1518 1 16.91769641148784 24.886448543643727 25.00135463706257 0 0 0
1993 1 18.94385706264217 26.481116323346082 26.261952162351893 0 0 0
1535 1 17.690406184262393 24.595262930957386 27.773784783768544 0 0 0
2188 1 14.932444345517402 20.464001417705315 29.577834739973728 0 0 0
1463 1 19.577415821315732 23.4502258656303 25.59814213539106 0 0 0
1716 1 21.8368085202826 19.610652795320984 28.04217115391816 0 0 0
1306 1 23.663248915512085 24.29811552728319 29.70550538597113 0 -1 0
1504 1 22.45241818098393 21.26654410732529 23.887883411837716 0 0 0
2526 1 21.490658039902517 24.266703986248217 27.577791853190707 0 0 0
2012 1 21.731518597782628 21.53329300473231 26.400093283144813 0 0 0
1172 1 26.729643601701973 21.081191367034766 27.684957853796263 0 0 0
1244 1 24.227328910767728 23.156859512721233 27.24783165480385 0 0 0
1502 1 26.346800891543417 23.78395250037584 28.339903407605597 0 0 0
1870 1 24.75705476071078 21.192571780160655 25.381349504617397 0 0 0
2036 1 22.165185685845113 23.99721078516438 25.01801445442506 0 0 0
1059 1 24.16393138426609 25.46026644988203 25.71658331920085 -1 -1 0
1314 1 22.509366546321406 26.539382485734894 28.921205264624554 0 -1 0
1599 1 22.35109937099397 22.049367682383338 28.892037129121377 1 0 0
1162 1 26.69699879372949 24.314985874324776 25.41704153015575 -1 0 0
2043 1 29.8496828058269 22.85661341900965 24.05431738620615 0 0 0
2283 1 29.20196640146697 20.198744624308034 23.690731771956482 -1 0 0
1506 1 29.174632700327926 20.282609826836314 27.09737306264046 -1 0 0
1924 1 -0.06123671166870643 21.59369749352609 28.397044477144586 0 0 0
1555 1 27.29265803737663 21.72622022195038 24.84261857735901 0 -1 0
984 1 28.83278945630154 23.241823765441975 26.85544242945462 0 0 0
1242 1 31.392091005835358 21.70828407808474 25.581542549505414 0 0 0
2266 1 30.752897001423257 23.147596575886674 28.610494707362616 0 0 0
1204 1 31.64576799324997 24.503635185627754 26.448346837302484 0 0 0
1641 1 28.50914420070256 22.986427082874496 30.18412039924594 0 0 0
2914 1 31.20546161176014 25.78146711394463 28.6916121036327 0 0 0
1594 1 28.935238333433777 25.76551030535758 27.297293536250024 0 -1 0
1948 1 5.368987461093597 27.892906081560753 27.118934821128978 1 0 0
1922 1 4.478919039235795 27.930633563138244 24.360708079049218 0 0 0
3069 1 5.65571549675388 30.473851547977638 25.378897340269507 1 0 0
2892 1 2.7035821745979844 27.502153881224125 27.041620756387395 0 0 0
2213 1 4.071153341320466 32.227730581511956 26.42940188093128 0 0 0
2249 1 32.886344056830076 27.797673248727016 27.484589779136854 -1 0 0
1576 1 4.041407436292567 27.66996124183263 29.50237312712736 0 -1 0
1755 1 1.258271537030323 26.63822266782095 28.727540450180115 1 0 0
1390 1 3.6726440118677024 29.84435688241442 27.56025141080656 0 0 0
1143 1 3.174580765552025 30.491173297819717 24.17472571266629 1 0 0
2209 1 3.5719120657708134 32.25595175559481 29.535469579217757 0 0 0
1985 1 1.7751689933652133 28.67610792005342 24.378243809970773 0 0 0
1315 1 1.0048993440897849 31.250602130594917 26.324730526946286 0 -1 0
2055 1 6.4815857663859076 32.30266594819805 27.908706769148907 0 -1 0
1715 1 1.4302505450352112 29.931261659687756 28.88060724635965 1 0 0
1739 1 10.263647637760318 27.788056166252236 24.65258772541249 0 0 0
2146 1 7.754314433671225 25.042169683398317 28.522261141620344 0 0 0
1635 1 8.633978843112518 32.48933605749915 26.63752092050468 0 0 0
2048 1 5.6089045732201495 30.302371918093844 29.828325313747914 1 0 0
1420 1 7.1560213248122135 29.83559882546686 27.473312341768295 0 0 0
2276 1 11.471336948233203 31.822035380221767 27.655758670214368 0 0 0
1326 1 8.74830438828976 30.544735626041156 25.03702016772987 0 -1 0
2183 1 13.407790049344895 29.01656776427367 26.40509191917218 0 0 0
2703 1 6.637639655470009 25.646162902352824 25.86209875886103 0 0 0
2439 1 9.903049316141908 29.231827085858555 27.144489711142587 0 0 0
3054 1 11.7388640991365 29.854772178006215 29.239676221279485 0 0 0
1971 1 12.352385082120387 27.457938460886165 28.265069893130292 0 0 0
1296 1 8.953001231899492 31.105694781009912 29.06778197576872 0 -1 0
2543 1 9.19990316682882 29.64434904677043 31.57574722496862 0 0 0
1166 1 14.777949755472008 0.26275164621219954 25.659362284035797 0 1 0
339 1 12.457477711698344 26.162387912018257 25.545537569393897 0 0 0
2960 1 14.405015656246277 26.35924376553336 29.57838241040791 0 0 0
1492 1 16.548374479168903 28.59951650207886 26.999032343178712 0 0 0
1942 1 17.021728978321796 27.040886609072047 28.95182958882735 0 -1 0
1544 1 17.797696959478994 30.736669493674118 28.090566458719813 -1 -1 0
781 1 17.331904035402566 32.237155041798474 25.73791454416888 0 -1 0
1571 1 15.232381810450224 30.186695114710187 24.71589496395054 0 -1 0
2169 1 17.28087221588295 27.586947955083467 24.570776023639855 1 0 0
1863 1 15.117571135389761 26.35209615101057 26.946278257900918 0 0 0
1469 1 14.788682423268776 29.044289466298427 29.14863759896276 0 0 0
1196 1 14.968479780071897 31.355151992096925 27.475028931126374 0 0 0
2802 1 18.90976931365671 31.735848608433635 30.754869283252912 0 0 0
416 1 18.756892172042782 30.226770275689546 25.355524865532434 0 0 0
797 1 20.112727380177574 32.75174712311364 25.554982419214735 0 -1 0
1116 1 22.77414975449874 28.42068397663228 23.949345746940867 0 0 0
1810 1 24.32297742291229 30.61478408686534 25.473896737345623 0 -1 0
551 1 25.499027553880463 28.24070470655169 25.436941626179575 -1 -1 0
1858 1 19.525466857403515 28.717747537459154 27.48332510296619 -1 -1 0
1565 1 20.442978164226048 31.583483240016726 28.046391343113886 0 -1 0
1069 1 25.25985836697979 0.189223368452588 26.227670631104207 0 0 0
2115 1 24.215419976070105 28.32850527059151 27.67639846377703 0 -1 0
1533 1 21.591784816917315 27.049634123788426 26.403860627658652 0 0 0
2082 1 21.694334095147195 30.033445010839415 25.782221635196528 -1 -1 0
1864 1 25.11671011408952 29.42284325929844 30.02826765663348 -1 -1 0
1796 1 23.53713255486119 30.701544119828082 27.869309611104864 -1 -1 0
1526 1 21.50979263757628 29.25831123510824 29.180876862706572 0 0 0
1147 1 22.595640729780275 31.232117068516075 30.496246323833017 0 0 0
2282 1 21.524511551353466 25.909504978732638 31.418238632497665 0 0 0
1343 1 26.189318769577632 32.04165519349659 24.054372322580345 0 -1 0
2450 1 26.881618125356336 32.62209650003927 29.016761358483045 0 0 0
954 1 26.454027800796638 30.390486143885735 27.33421457352039 0 0 0
1434 1 25.851653597540164 26.21158427497302 28.02884686107354 0 -1 0
723 1 28.216620298505443 32.20263821024 26.382073928158192 0 0 0
2274 1 29.760483592607077 29.84273179139275 25.708040539404227 -1 0 0
1862 1 28.234985227859504 25.526502897614034 29.97127880510842 0 -1 0
1998 1 27.956363781345154 28.096046448900328 26.71884141983437 -1 0 0
1560 1 32.09867089135686 30.886932820441437 28.367907127855073 0 -1 0
1277 1 27.552644261546174 28.256971786270814 29.32980272746553 0 0 0
1212 1 30.2892266455369 28.48412938225062 28.447268633272195 0 0 0
1283 1 30.467202928328682 27.439576344737002 25.795369553604345 -1 -1 0
1982 1 29.121608601375314 31.5533297096746 28.79500604027933 0 0 0
2022 1 2.662413443303826 1.8762589786076138 30.312641860115423 0 1 0
1263 1 5.1896474225596805 2.3084521763777834 30.632913534609724 0 0 0
1669 1 1.2985021788742093 1.0675023624367357 34.026038999392775 0 0 0
2377 1 4.143991436700274 0.5134443515314867 32.39741336253447 0 0 0
2609 1 1.2289194929227845 32.80872649284104 37.039006446458906 1 -1 0
2311 1 32.521586204855076 1.3586474314286525 31.484147265572233 -1 0 0
1803 1 2.7007739936292015 3.029172268151069 33.17505613595198 0 0 0
2051 1 5.607896832626168 32.77770904899862 34.498007518544775 0 -1 0
2584 1 1.6851385245264878 5.132539343476006 33.96812887816699 1 0 0
2286 1 7.55129280706801 2.4893573316031605 28.921793128884126 0 1 0
2854 1 0.8515632187154802 3.0946934849937064 35.605933926896014 0 0 0
2558 1 32.0976657589801 -0.10504603592163576 33.374318394199875 0 1 0
2661 1 32.466014500918945 5.86140404935243 35.16465233905241 -1 0 0
2786 1 3.600532499270226 1.1593172792554018 36.027980331527054 0 1 0
2411 1 5.579514325071751 31.82204844171937 37.2877659409816 0 -1 0
2364 1 6.419690857012862 4.271487667158092 31.466762527058233 1 0 0
2529 1 5.275172833332277 2.4876490882514033 33.96399796203065 0 1 0
2573 1 9.713427837856527 4.41610973693399 32.36459751218853 0 0 0
2859 1 6.9531365195593 2.034517628471579 36.46048826850835 0 0 0
2425 1 11.009723814641275 4.378722642822915 34.73608599766434 0 0 0
2505 1 10.952927974317292 0.8422681087084338 33.28677457879345 0 1 0
1411 1 6.926042199584729 4.882856887676584 34.470006791538154 0 0 0
2231 1 8.603137140482735 2.9257196680590316 34.06768764621556 0 1 0
2318 1 8.384386464522176 0.24072689543871123 34.29235849706108 0 0 0
1771 1 7.793698811735685 1.6467266683429935 31.803599848176283 0 1 0
2073 1 11.884852269441708 2.9967267240011193 31.717931923840464 0 0 0
1107 1 13.045923675290812 2.9759929603816104 34.386164375164896 0 0 0
1491 1 13.117011047337378 5.372362315678691 32.59567464320051 0 0 0
1735 1 6.249505181571516 32.827555161703515 30.84761050412147 0 0 0
2388 1 10.778435688075353 1.2112754724541097 35.727779332099736 0 0 0
2520 1 9.022160482879688 3.8608095432055225 37.161053929647764 0 1 0
1710 1 13.580429485842908 2.123663527701189 30.03781939355023 0 1 0
1289 1 16.85485414741391 1.2446101318466471 30.570161083253304 0 0 0
2096 1 13.752482048769615 5.308709962300842 36.33963148032607 0 0 0
1312 1 15.094929697768475 2.9973013203685004 32.21694758890293 0 0 0
1097 1 15.602527043895362 0.6673602771568112 34.7147473724279 0 0 0
2330 1 17.144590312971467 2.8356470489799244 33.90044630388175 0 0 0
2358 1 19.439422973013574 0.20050987539770393 34.229896683368366 0 0 0
1937 1 18.1164838685167 5.639139572744507 34.799325633659336 0 0 0
1632 1 15.504033328655419 2.904427084223058 36.31694800442622 0 0 0
1919 1 18.528974276692864 3.594856157112392 36.99274072529362 0 0 0
2574 1 15.137586416955926 5.4111166774271835 34.286283637725916 0 0 0
2357 1 20.03482375205918 3.9577926378078807 34.85978737045883 0 0 0
1800 1 19.238929818755633 3.9437541050439875 32.23652981110245 -1 0 0
1718 1 19.462497385359395 1.1443739744291297 31.695593088974906 0 1 0
1360 1 17.61069186746564 6.307051167781145 32.43377716553368 0 0 0
1857 1 14.60669807733792 0.30383392741275633 31.88384987977517 -1 0 0
1786 1 24.835604463343785 3.477662848686865 31.929849985338205 0 1 0
2026 1 25.699612578226812 2.8771362190871304 34.78266777453486 -1 1 0
2516 1 23.034140694828334 2.98491839761038 34.77495789200982 0 1 0
1170 1 22.775695626835336 5.2822650405893015 33.66163602463058 0 0 0
1896 1 24.912224314920536 5.976334819904898 32.975283530632254 -1 0 0
1688 1 21.05786106952522 5.5945009796440415 31.76531516777765 0 0 0
1875 1 21.552393251228697 2.719905919919993 32.45687453733871 0 0 0
2219 1 23.995075221338144 1.2258083026489943 32.45264427513824 0 1 0
2375 1 26.76393925004253 0.8847812974694336 32.28107344510452 -1 0 0
3051 1 23.250688159838724 6.2035788286811036 30.50482587723474 -1 1 0
2777 1 25.64350409080163 0.3461248884699042 34.89886487365918 0 1 0
2872 1 25.149425838868673 4.877995736705813 36.988996658721625 0 0 0
3105 1 20.521591589337223 6.621834439913101 34.79511653096477 -1 0 0
1802 1 29.61089804437567 6.871718188408744 31.41123906974116 -1 0 0
1509 1 32.43272299923706 5.866986570837771 32.411066534813855 -1 1 0
2623 1 28.31016804346546 0.2279802696269607 35.090846399583604 0 0 0
1350 1 30.345631427662475 1.618974602326213 32.97868502857539 -1 0 0
1978 1 27.369925151816602 5.169742431219512 32.22851838794595 0 0 0
2853 1 26.35456937290706 1.9114531745538625 29.972533305669277 -1 0 0
2335 1 27.951096133184244 3.0690822279773706 33.03037442563044 0 0 0
3006 1 29.78913265973377 2.5123599203521256 35.61316714744729 0 1 0
1634 1 30.174530542726615 4.735137832142988 33.73591406019947 -1 0 0
2139 1 30.96312711340745 3.8949247004986853 31.220759625660552 0 0 0
2875 1 28.996097789698275 0.8329448026014614 30.73076888063998 0 0 0
2530 1 32.58922279948976 3.266571540784532 33.64422641787903 -1 1 0
2757 1 27.217527918478837 4.888983686101863 35.31268063372475 -1 0 0
1631 1 29.840170773630984 5.367160913571602 36.52148131045791 0 0 0
2586 1 32.04439232017029 0.9200535002211804 36.38595611895417 0 0 0
1406 1 4.739228691475533 10.669919898311196 29.95116935124794 1 0 0
771 1 4.853295302974533 6.209299706809175 33.21711560290603 0 0 0
1031 1 2.853798140218473 7.487669894050238 34.60295191635763 0 0 0
2625 1 3.9164471203721507 5.104901556358741 30.487110589888562 0 0 0
2692 1 3.8963873823502224 9.36453787807582 32.259195949978796 0 0 0
1055 1 1.1817376755551368 9.529773419622895 31.06919721660526 1 0 0
1519 1 2.3269564235069695 11.939647942812192 31.81395330857565 0 1 0
2112 1 4.465869580486546 9.350030492257149 34.94524181329578 1 0 0
2720 1 6.254370899030551 10.837632251821896 32.934510862638746 1 0 0
2666 1 1.7858612056252956 10.139298898288889 33.940525076402515 0 0 0
1749 1 5.324617146077704 6.849563271032819 35.78762035629538 1 0 0
1320 1 0.42998485992632385 12.718951362255407 33.96494565489619 0 0 0
2838 1 0.746979935114041 7.976104178328198 36.408827422931886 1 0 0
2401 1 2.4243709975775767 6.939057126694609 31.322536714923434 0 0 0
1859 1 3.623675299507503 12.090039261951697 34.32660899813566 0 0 0
2176 1 4.715423282441622 13.11448234765387 36.709682369312404 1 0 0
2297 1 7.725277118541259 6.3303143150308765 31.380266003053777 0 1 0
2926 1 6.824324102083644 8.223385908057784 33.437195747495856 0 0 0
1522 1 9.339282571978087 6.536636079975587 33.99056024039703 0 1 0
1899 1 13.214460868926215 9.620378532276296 33.39111901384202 0 0 0
2342 1 8.08540488029722 9.868698481227913 31.602107973120507 0 0 0
2328 1 10.626719091955902 10.742140891954094 33.5328922900625 0 0 0
3181 1 11.924774201585857 7.2040255467587055 34.12618271423067 0 0 0
1891 1 8.03640108359721 10.04342882805579 34.76922999406265 0 0 0
2065 1 10.617011447144806 8.45315333533445 32.032660131418226 0 0 0
2379 1 10.37932409131712 11.378857645090472 30.725864737798638 0 0 0
1653 1 12.704853889316116 12.790062220912025 31.76926397252063 0 -1 0
1426 1 9.3123200804204 12.314438593887091 36.366706280093325 0 0 0
2208 1 20.029090400552494 7.727633830509976 32.49768123474664 0 0 0
847 1 18.846918224514788 10.206366045558426 32.68343852301477 0 0 0
1909 1 17.801243147791702 13.106861432465866 32.38447723158652 0 0 0
2220 1 14.361775716315863 11.395468050940867 34.68550859918108 0 0 0
1830 1 15.872363233568402 9.001427910278329 30.366461117648875 0 0 0
2441 1 15.978774193253773 10.519999509324949 32.4911973198888 0 0 0
1515 1 17.404433049959028 8.273035738515786 34.1945650856451 0 1 0
2037 1 17.11879955701709 10.856709661488923 34.868362141089996 0 1 0
2325 1 15.041923544673462 7.903341571145404 32.818921155767036 0 0 0
2166 1 19.471865370109075 12.383153536577083 35.376133030208486 0 0 0
1852 1 19.411478113047025 8.758093869162858 35.83505211774758 0 0 0
2228 1 17.005566933044587 8.330470391328502 37.65184303071192 0 1 0
2665 1 13.24440892907982 12.905792607283846 37.35354821415301 0 0 0
1867 1 14.792922702921384 7.937049124910763 35.239852279615846 0 0 0
2168 1 21.45847779607908 9.660077353681638 33.90148798573224 0 0 0
1625 1 23.48535711656019 8.363389801988829 32.233569200973875 0 0 0
2382 1 26.99878254875747 7.983765327967903 32.87187756880471 -1 0 0
2207 1 25.626926579088018 12.36133865335526 33.82488581398815 0 0 0
1660 1 23.333971991992126 11.106277131533842 31.95696571831905 0 0 0
2225 1 25.786978432384696 10.172910966585272 31.678905026860427 0 0 0
1676 1 25.77517010218851 7.620394124162785 35.48815632022691 -1 0 0
1359 1 22.579363921296075 12.20346537307539 34.52875999123106 0 0 0
1545 1 24.39109854485652 9.929349179919459 34.61357315284807 -1 0 0
1934 1 23.19634566022833 7.572962679257293 34.889414309622566 0 0 0
891 1 20.599635181643787 12.501714952795187 32.38919570055568 0 0 0
1659 1 25.156902351867547 13.539838938234201 36.00242455642661 0 0 0
799 1 0.5253034704162455 8.17723661224444 33.165265845414716 1 0 0
1284 1 29.1793003632774 7.105447461372264 34.53740217134216 -1 0 0
2582 1 28.022230729307882 11.834930077705355 31.810128011151253 0 0 0
2635 1 27.745520604991874 10.29696742657855 33.78703829050195 0 0 0
1078 1 30.315620646212256 11.184460373565328 34.878882710143394 0 0 0
1795 1 31.926898337366367 8.442879813082248 31.384462298062573 -1 0 0
2187 1 32.41879091527094 10.595596026263838 33.079516141537184 -1 0 0
1413 1 29.994391074163804 9.071920554852182 33.093798838652994 -1 0 0
2113 1 28.08090309975369 12.80185542095503 34.38438916323358 -1 0 0
2443 1 28.96016407013007 9.372854570542632 36.4570782909683 0 0 0
2092 1 31.46343043497022 8.341110262753197 35.344995978619814 -1 0 0
1129 1 30.008079139930306 13.519713405182175 32.41723477419105 -1 0 0
2268 1 31.2139449336238 13.799204165934672 34.94962159038827 0 0 0
1439 1 2.9595538229580707 16.102930137497374 28.58892255166553 1 0 0
1642 1 6.395330433976723 12.536642408339876 30.232830213531976 0 0 0
376 1 4.755984648397078 13.390620018218108 31.960821441484857 0 0 0
2182 1 2.23919014226302 14.903493270223201 37.310626136622915 0 0 0
2405 1 2.878613423262415 16.687121044159802 34.987073247653456 0 0 0
3005 1 6.75579705652754 12.71405414162784 35.032311963622114 1 0 0
1039 1 3.756009854711609 15.908886465707097 31.331609966823844 0 -1 0
2109 1 2.325329818445992 14.601526151211338 33.09642886069408 1 0 0
2423 1 0.8072215722295674 15.191329116001295 35.43340625476242 1 0 0
2204 1 1.5641227591385776 19.901501921435816 34.831472244631236 1 0 0
1793 1 1.1758028203236786 17.025746070825157 31.39718092426716 0 0 0
1836 1 5.710781070776535 17.164468693142332 32.630768611275286 0 0 0
1925 1 3.0000407297034846 18.84828324808034 37.036247035699944 0 0 0
2970 1 4.819335674960012 14.735831759623574 34.33252301810873 1 0 0
2280 1 5.043413408675461 18.291872593685568 35.04919607871378 0 0 0
1656 1 13.293577265189743 17.533212120827418 29.629185491658227 0 0 0
1789 1 10.753402076842235 14.513135789300195 32.97667919342471 0 1 0
1556 1 8.60171213650423 12.491353746031944 33.03398061720524 0 0 0
1947 1 7.050810861881463 14.552793204664647 32.85173486250494 1 0 0
2468 1 8.741165990344655 13.80128734277877 30.33050537465907 0 0 0
2349 1 11.826056092492182 12.803347734812139 34.98324015461327 0 0 0
1597 1 7.007631801227076 16.172047275454073 34.864462230093196 1 0 0
2091 1 9.200467019916182 14.701132537787553 35.095742455681034 0 0 0
1453 1 8.967227827580592 18.69050182515772 35.13568245518807 0 0 0
2691 1 11.515656102015319 16.546183050255802 34.738451548795794 -1 0 0
2118 1 12.41601994921402 17.75397640340096 32.23704725060347 0 0 0
2385 1 12.195420343007008 19.49893667345697 35.04021644246072 0 0 0
1871 1 13.701005104304908 14.57633386350662 34.02143644582868 0 0 0
1354 1 9.313306940442713 17.000038311644573 32.995572577585904 0 0 0
1614 1 9.058050406148846 16.510063052845556 37.1382701168685 0 0 0
2193 1 15.55684260466997 12.956905034036616 30.83094032479422 0 0 0
2099 1 18.207163065357747 17.860861032230265 30.80367576332324 0 0 0
1746 1 19.45387199675439 13.198180733776036 29.927902226949687 0 0 0
2181 1 14.487967262782952 16.00925156776184 32.02383100071818 0 0 0
1619 1 17.058042397750683 15.644512441243533 31.73974109460228 0 0 0
1094 1 17.711191411594207 14.549544153346002 35.064082840692855 0 0 0
1680 1 15.761191324194932 13.318562974931124 33.732425012375074 0 0 0
1960 1 15.84857261885292 18.685802068119504 32.29390808889109 0 0 0
1939 1 16.41187115229925 16.346503512615218 34.205915303967394 0 0 0
822 1 19.165405608787033 18.627074923265376 33.43378819007395 0 0 0
1550 1 19.641367472191515 15.620641343386767 32.05894709492196 0 0 0
1638 1 17.101854517780286 19.059509730598336 34.78066463476744 0 0 0
1428 1 14.166724554873708 17.82105542944535 34.4683704343502 0 0 0
1945 1 15.338984111428866 14.602218638025679 37.08446787291416 0 0 0
2464 1 23.77242777065429 13.769597465685486 32.899439608334106 0 0 0
1693 1 19.339217457917453 16.65788397135815 34.80496860877093 0 0 0
983 1 24.667346117904255 14.940511636251811 29.789288099435538 0 0 0
2602 1 21.520619589596787 17.90174351346247 32.22286034027459 0 0 0
1493 1 20.45339146218505 18.04298531701058 29.49728284864499 0 0 0
1980 1 23.03710275520218 17.558340016574427 29.750769277150678 0 0 0
1357 1 22.117893870823067 15.36985835098084 31.551233374171925 0 0 0
1883 1 21.17651169785292 14.530721771874026 34.47786023562152 0 0 0
2206 1 21.770619044849333 18.72837581556654 34.96124052881569 0 0 0
1734 1 23.340254642725736 16.09728800306166 34.49517395513793 0 0 0
851 1 25.951778261379495 15.262724148588333 34.129511496196486 0 0 0
2203 1 24.88572486468643 16.548660484790684 31.667375162017933 0 0 0
1422 1 24.220478191875905 18.315487136300906 33.23552803097345 0 0 0
1717 1 27.683828006223422 17.210208434490184 31.729557944442668 0 0 0
1736 1 26.93124744271995 13.059189921472845 28.936911925998988 -1 0 0
2861 1 26.92387073001546 14.505141249438726 31.553453672502076 0 0 0
2942 1 27.509490092148194 17.245363122454375 34.85988437553402 0 0 0
2327 1 25.512355046262822 19.00282069337318 30.78406846438183 0 -1 0
2430 1 29.717475933638724 19.564956267588446 32.22572509013811 0 0 0
1317 1 30.41792067364834 16.799427479102636 31.730675921054047 -1 -1 0
2200 1 32.978297814921696 17.960508934786198 33.79332107915963 0 0 0
796 1 32.90899037481423 15.275156154205044 33.14682364448896 0 0 0
2494 1 25.52187299289236 18.981838648342105 35.83526140681574 0 0 0
1616 1 30.591454050169908 16.703202742434 34.80371086074751 0 0 0
2469 1 29.334631404173866 19.28993633975852 34.9868431426451 -1 0 0
2004 1 32.10740556607582 18.79159879807669 30.715467645236032 0 0 0
2049 1 32.55900121719304 20.287199045878676 32.75547168554678 -1 -1 0
2017 1 2.836077465683824 25.2774866455598 30.41057911605938 0 0 0
2953 1 6.244320756581909 26.085785694008077 30.617181748401045 0 -1 0
2474 1 2.947068501513264 18.439777476525915 32.965591933795274 0 0 0
2501 1 4.725413373805288 18.448480532075223 30.782501895850572 0 0 0
2078 1 4.392957126207083 20.996244618984953 36.22211597382656 1 -1 0
2406 1 4.8645673101054765 20.360651176894432 33.27538298398292 0 0 0
2610 1 5.563118555151498 22.697740566129312 34.52688691200185 0 0 0
2905 1 1.8409768896801286 23.40244486814178 32.11265881904087 1 0 0
1585 1 2.710159636661637 22.04932414459507 34.20982430765903 1 -1 0
2948 1 4.6818797631681 23.395876673990475 32.11619496285233 0 0 0
2752 1 1.7362487950043621 26.262916090574166 36.422805273022156 1 0 0
3037 1 0.2607560343620761 26.18773894175566 33.82815641548424 1 0 0
1900 1 32.93145432377336 24.28696384096652 36.35219130883995 -1 0 0
3059 1 1.3227383814793339 20.292911278817343 31.493025466875995 1 0 0
2532 1 -0.11874985635526375 22.818503858296715 33.85752926969488 0 0 0
2201 1 2.837167258934574 24.709480500891285 34.301750543281564 1 0 0
2378 1 0.09089543247037168 25.39089180623955 31.210481199247496 0 0 0
1262 1 11.25716122883458 28.178307683553584 31.02696240547064 0 0 0
1898 1 9.395390932262643 21.5030995930641 31.07947000212837 0 0 0
1990 1 7.610513353923813 23.429517713915757 30.649424548779773 0 0 0
2449 1 7.552102625522954 19.142906174546304 33.04708120858691 0 0 0
943 1 7.618370144218573 21.799030049425173 33.012993909409744 0 0 0
2645 1 6.876587721434655 20.522261975834898 35.38024127881249 0 0 0
1035 1 9.8875175679015 23.88506472841211 32.615456716455 0 -1 0
2598 1 5.335186346342719 25.68577888437593 34.92102185126491 0 0 0
1876 1 10.371613323881146 19.53185186067104 32.94185237853625 0 0 0
2772 1 10.92967378966736 24.6098447429726 35.26036570518802 0 0 0
1480 1 11.820069777129671 26.22181335225167 33.11162743274547 0 0 0
1964 1 8.431710517355842 22.94643484339242 35.527375748766 0 0 0
2747 1 12.561037957525082 22.385019764445737 35.838009503725544 0 0 0
2885 1 12.735387754950732 22.872974137365983 32.7029371693172 -1 0 0
716 1 10.420643446653699 21.729834670368092 34.31934251123466 0 0 0
729 1 16.779384377994212 24.95925099356682 30.215019965838106 0 0 0
1207 1 12.92205593325689 22.615226587107095 29.865184035718368 0 0 0
1930 1 13.770383989148128 20.54692516122198 32.043752541826365 0 0 0
1968 1 19.74267792644331 20.58186607471076 29.952688579080846 0 0 0
1644 1 15.004828502098006 21.128307013753524 34.35016784074708 0 0 0
1392 1 17.780586015687305 20.70620536818109 32.59879609587633 0 0 0
1958 1 18.8482122284593 23.203302641146422 32.82077893909732 0 0 0
2922 1 19.002930306136097 21.178326143570956 34.93949312769831 0 0 0
1811 1 16.921364669428968 23.049759378406232 34.51232276067423 0 -1 0
2269 1 19.94577865701784 26.229826731001573 29.133292361378036 0 0 0
1807 1 15.524916377195497 22.859749008067453 31.946134575854714 0 -1 0
3067 1 16.64211403682503 25.09501861037865 32.99716814754285 0 0 0
1419 1 14.013806647791473 24.39803954078925 34.55796774671779 0 0 0
829 1 14.242836567041701 25.252652160681887 31.702767432789365 0 -1 0
1435 1 17.236613060999762 27.231753079451238 34.86115262061637 0 0 0
2127 1 19.782334614053866 23.844287965967702 29.953385643045102 0 0 0
1679 1 25.244265443358547 21.948186787270004 30.225106536420185 0 0 0
1881 1 24.855855834716273 21.868858341909185 32.69464805520259 0 0 0
2360 1 20.962010266207454 20.59944940096516 32.42962255783285 0 0 0
1995 1 18.403361259385466 25.007445968583625 35.29913374622396 0 0 0
2481 1 18.571742246584108 26.382611230154616 31.35185545057063 0 0 0
2915 1 22.041950191056657 22.16884700858207 34.124172882495294 -1 0 0
1966 1 23.47608848628718 24.458649751287375 35.576355014949904 0 0 0
2316 1 23.0833186135544 20.119688461633356 31.254243882435755 -1 -1 0
1087 1 23.720254975553704 24.952913884479944 32.53847862006667 0 -1 0
2480 1 24.120827289567785 20.8549433029392 35.270075483152134 -1 0 0
2042 1 21.726842802829417 23.394352113509203 31.53774796294227 0 0 0
2126 1 25.596280559185118 20.80920134920452 37.814091975323926 0 -1 0
2267 1 25.575186391338008 24.825370714535172 37.09864116792474 0 0 0
2167 1 25.58302182997735 23.30283362000417 34.6348816728869 0 0 0
2458 1 31.110151879181593 21.29905486293184 30.32072590868957 0 0 0
2985 1 30.605999173012677 24.779741091058515 31.417040945016364 -1 0 0
2534 1 26.64813740386607 19.39626691699402 33.16898722593799 -1 0 0
1818 1 32.948367465837336 22.531041664231 31.228113506622286 0 -1 0
2175 1 26.92790998428563 21.158340913281965 35.18588494494093 0 0 0
1833 1 30.651494570464003 22.436180656833226 32.75063466533864 -1 -1 0
1936 1 27.79057690501629 20.51956651392333 30.099610197132904 0 0 0
2359 1 27.90699156002061 21.516716674825393 32.814375044127225 0 -1 0
2254 1 29.31832393000545 22.272614519739136 35.15793129772761 0 0 0
2178 1 31.07900573733557 25.32632812489857 33.912581582670256 -1 0 0
2521 1 31.57639932121489 20.52667570951695 35.10457081165647 0 0 0
1724 1 28.67121274737788 24.402686579226895 33.31940993422347 0 0 0
3250 1 26.423155630693596 25.612464291648543 34.494817466928254 0 0 0
2814 1 26.642486910892572 24.08749468508576 31.448628986005414 0 0 0
2484 1 31.514809921913226 26.51579499170176 36.265655962849976 -1 0 0
2723 1 1.915520959166811 32.473392450838105 32.08270468818524 0 0 0
1082 1 2.515823770266281 32.09924837004819 34.90968102857376 1 -1 0
994 1 -0.13632480759042398 30.768092757823215 31.151712464304666 0 0 0
2035 1 6.113808573665684 28.464115426697827 31.377310036983715 1 0 0
2551 1 1.669988163249731 27.925497023637394 31.67437170317017 1 0 0
2194 1 4.23718075735187 26.46904439121861 32.65077627480168 1 0 0
3269 1 2.6949557555351547 27.91497577321179 34.72453734968883 0 0 0
2689 1 1.1456274125831827 30.235472666119666 33.729016564966315 0 0 0
2279 1 4.143086851855344 30.755621383871336 33.55170211848041 0 0 0
1797 1 3.528888777508928 29.991105063216565 31.385643897612802 0 -1 0
2047 1 4.9999818579816795 29.15743860098956 36.59244528601193 1 0 0
1496 1 7.503216274868297 27.817543332747512 28.93648568459595 0 0 0
2417 1 13.187648386799866 32.7664871622343 34.33779363607523 0 -1 0
2063 1 5.410609714268159 28.554855390845542 34.02818107604536 0 -1 0
2190 1 8.75661652132083 26.26908355728088 31.607339372456956 0 0 0
1987 1 6.943114431335394 24.612508546358143 32.91933145810376 0 0 0
2987 1 8.553337975411196 25.879648650555175 34.43520693841508 0 0 0
2005 1 8.126314399065887 28.2699950991413 33.85817734396085 0 0 0
1748 1 9.35479051905282 32.46404664248018 31.854668378147995 0 0 0
1633 1 10.653030729116699 28.370597209938285 34.05595453594654 0 0 0
2998 1 6.70578265668047 30.774355199113934 32.517637721526974 0 -1 0
2619 1 11.996871403693778 31.06498263591691 31.990887497591135 0 -1 0
1646 1 10.243499231951695 31.59787756705094 34.124748777865435 0 0 0
2185 1 12.595600575451192 30.265572931614212 34.604429916513986 0 0 0
1285 1 13.35911480484822 31.911555966465716 29.61889987361036 0 -1 0
1461 1 16.37574364554973 28.481363992573865 31.312771339770915 0 0 0
2303 1 14.655227155552861 27.112728503563652 33.53128395199558 0 0 0
1017 1 16.143375072384774 31.58580280998544 30.019234592310124 0 0 0
1780 1 17.274404714264694 32.588119727120905 32.809886749718544 0 0 0
3185 1 12.846713501403357 27.548579414262267 35.293407287684325 0 -1 0
1750 1 17.68190788795233 29.64341326872855 33.19670294683555 0 0 0
2136 1 18.773070923611904 28.955687869195003 30.29336434197188 0 -1 0
1873 1 17.33794596036227 31.589079955673043 35.30880085165478 0 -1 0
1874 1 14.956965107457384 31.063097446161592 32.58706116978307 0 -1 0
2553 1 20.21769259789876 30.672256488590943 32.649727419259996 0 0 0
2229 1 13.737690960321636 28.491710641055928 31.727866969954963 0 0 0
2245 1 15.284170984280657 29.479384952477403 34.4829099300626 0 0 0
2816 1 19.02703899517802 29.381274752202057 35.477504703130485 0 0 0
2408 1 19.847513618301353 27.993155712748898 32.970871110906984 -1 -1 0
863 1 24.96864529849463 32.18548541109238 31.314389365070095 0 -1 0
1280 1 24.220663207477056 26.992151176522313 30.77689780938806 0 0 0
1591 1 24.89325390559326 29.73568712069417 32.53009659778169 0 -1 0
1028 1 21.588197569851193 -0.01995714565615234 32.3834169005993 -1 0 0
2544 1 20.949515769604517 25.233544468738206 33.96718904904695 0 0 0
2106 1 22.353802714116767 28.89778816248275 31.840690183056804 0 -1 0
1678 1 23.426408589667222 31.57753678133128 33.940435394484204 0 0 0
1278 1 21.712370629195345 29.502979127009407 34.40052924233752 0 0 0
1845 1 23.225182748175676 27.32022834013121 34.17096529735925 0 -1 0
2517 1 22.386746999079964 0.2338066346620878 35.59130389501763 0 1 0
2545 1 20.363647579560574 27.13719492114002 35.49172067498894 0 0 0
2485 1 24.1856422976993 29.69229384354114 35.83155300193782 0 0 0
1952 1 26.41797523518158 26.8697103497067 31.680226106444394 0 -1 0
2302 1 30.831600502657906 31.959683470480154 30.62639471038568 0 0 0
2498 1 0.19538815340526933 28.481398347661035 35.913235432542 0 0 0
2581 1 26.48196050216625 31.20402249315578 34.08354494807086 0 -1 0
2572 1 32.383896374318525 28.163304306739366 30.552465944637778 -1 0 0
2046 1 28.69011918562755 32.02331958019211 32.83043733736425 0 0 0
1848 1 27.304755827033638 31.14199517999847 30.840115591733397 0 -1 0
1805 1 26.220975488228756 28.380993006233027 34.4931172332936 -1 -1 0
1728 1 30.995997368961486 30.454138543089446 33.34823193435338 0 0 0
2356 1 27.83673092241399 28.926584408449916 32.53665053173989 0 -1 0
3317 1 30.056131699629304 29.845095844960184 30.862421741040997 0 0 0
901 1 30.89496849310513 29.161037355423638 35.798429472255165 -1 -1 0
2650 1 30.270676813520158 31.869330233484252 36.62644224982279 0 -1 0
1792 1 29.956430602418198 27.23549690153326 31.38575113606124 0 0 0
2259 1 31.808570682313878 28.03995409001765 33.260406629865074 0 0 0
2059 1 29.101303221452056 27.07223758139512 34.73834568573261 -1 -1 0
1882 1 28.76282221131011 30.00531726965587 34.84053044956049 0 -1 0
1668 1 32.4326513118763 31.433293005981117 35.538412641807945 -1 0 0
1732 1 27.408774518597912 31.655461074153333 36.911801418944485 -1 0 0
2525 1 28.70235460531323 29.418670673783353 37.335124806201634 0 0 0
3326 1 2.4748111534631168 2.8119760176109727 37.59240095898052 1 1 0
2341 1 4.203428784204913 4.034123649747097 35.93379708763868 0 0 0
2629 1 32.33855933058903 3.6814695382672302 40.5528212398744 -1 0 0
2304 1 4.0453845703094675 4.403190376259728 41.32019587749563 1 1 0
3162 1 2.8879061197828118 2.2884746838268324 40.1292875400464 1 0 0
2467 1 4.285383320928167 -0.03019251791839521 41.133805543421985 0 1 0
2569 1 -0.030381951673200257 0.27614245589745656 41.097330829067296 0 0 0
1991 1 3.825933501619166 0.19839577837076525 38.363985040855255 0 1 0
2824 1 6.368571160203398 5.153184360156567 37.280742951436665 0 0 0
1386 1 5.0060041449495225 2.588752882138118 38.41547112461243 0 1 0
2787 1 1.3539549019548103 4.858509436340014 39.834548775718304 0 1 0
2336 1 1.8750336565248906 5.477374794944648 36.93652758217876 1 0 0
1706 1 0.8866303357308747 6.036117168710536 42.636551303209906 0 1 0
2592 1 1.8238722505774463 31.800429151500172 39.52607329377539 1 -1 0
1897 1 11.705235802270463 3.2218990561131053 37.10893634390624 0 0 0
2640 1 6.39135483335604 4.3841835313714625 39.60024243018026 0 0 0
2317 1 5.946528673865402 6.461462275747389 41.07691813830454 0 0 0
2702 1 6.545287045208959 2.15489197199602 41.19369682690801 0 0 0
2735 1 10.647465819902546 0.08949814964392204 38.76714576064131 0 1 0
1798 1 8.726038734104971 4.121833439658759 41.59904303302354 0 0 0
2800 1 10.440234821474858 1.9787980128783205 40.96531086875441 0 1 0
2822 1 8.669494082966049 1.9823697741452009 38.761904382740845 0 0 0
3294 1 8.799030440954567 -0.1466551331705059 41.36192916059679 1 1 0
2616 1 12.96952541757036 3.8725859730256564 41.48351546581027 0 0 0
1592 1 10.411111470371397 4.375978496064599 39.50803610424111 0 0 0
2654 1 8.042300220971573 7.42647619605236 36.295367082946136 1 0 0
2034 1 6.65584454324064 0.15914090542822112 39.20317149106536 0 1 0
2192 1 12.564473621227314 -0.17517114617050059 41.16564348067547 0 1 0
2256 1 13.390806042237092 1.0115665325393446 36.65840238550851 0 1 0
3085 1 12.905065927253311 1.815025331168303 39.196945048486164 0 0 0
2798 1 14.524826813756892 4.124187485214741 38.59581050588361 0 1 0
2462 1 14.9100314658438 1.8176328501661074 41.279723974523414 0 1 0
2863 1 16.622223546478693 2.526432713077781 39.03020515499946 0 0 0
3310 1 16.32820391247209 5.516830462781848 36.637067322884384 0 1 0
2579 1 17.185709893121636 4.14495050680022 41.154651910686155 0 0 0
2589 1 18.84965254716324 1.7350266725298398 41.118150696122754 0 0 0
1849 1 19.58398336497363 6.740743755639219 37.31776601580646 0 0 0
2538 1 17.63941827623319 0.7139673067973313 36.85582254575317 0 1 0
2287 1 15.090971065808082 0.23357629450902825 38.78225911742719 0 1 0
2575 1 16.923222476097056 0.023878195215260238 40.79473279335847 0 0 0
2604 1 16.86953263538095 5.864964251786188 39.12213851547961 -1 0 0
2761 1 19.37658965395675 33.00078261674021 39.012504798044034 0 0 0
2643 1 19.132259063667004 3.969676141148384 39.369858055276836 0 0 0
2647 1 14.988462492020405 4.092794604593051 43.21573649463064 0 0 0
2975 1 20.4498168338192 1.7394606706997795 36.474039002927555 0 1 0
2483 1 23.350689662679535 2.6248463961977455 37.221815215992855 0 1 0
2361 1 21.245581756192482 4.425252908810524 37.66586994689064 0 0 0
2966 1 21.0090370476037 4.085584929862966 41.22000086942198 0 0 0
2488 1 24.96479936874327 2.518348104947004 39.15417679538799 0 1 0
2522 1 23.664820358455703 2.3147429835159334 41.40134303648435 0 1 0
2159 1 25.410977949861813 4.558853443963023 41.23565768634022 0 0 0
2871 1 20.96654678878167 2.1180714972613455 39.36316470280088 0 0 0
2066 1 23.39022387045174 4.586502295483592 39.39312478759179 0 0 0
2990 1 23.139880074632565 0.5659518523656296 38.820428761519814 0 1 0
2110 1 23.29267579108949 6.3793577081547275 41.25817842132415 0 0 0
2104 1 20.75042355434893 6.280322835237727 39.43250669905784 0 0 0
2030 1 24.850195237504224 6.902911868029515 39.05545790856095 0 1 0
2882 1 21.4142702591221 0.045145203915461556 41.02650007386774 -1 0 0
3011 1 25.698848596820806 0.37800783537340255 37.334974859149824 -1 1 0
3034 1 21.45764477388448 2.3243064092834884 42.98142010326416 0 1 0
2088 1 27.61243591545429 2.812381483759055 37.03496714687393 -1 0 0
2902 1 27.706991058252207 6.8039111771631635 37.4891549824887 0 0 0
2079 1 29.49006814780684 1.0950045690698331 38.262609529916354 0 0 0
1775 1 0.24793771461105973 1.8890899672693133 38.288991373763025 0 1 0
2045 1 32.43759175866326 4.080687715878589 37.54333900951787 0 1 0
2497 1 29.936544853432416 3.6311337340007217 38.77586839091397 -1 1 0
1767 1 27.06056900252074 4.736741621273576 39.2243524899262 -1 1 0
2883 1 30.679042107849774 1.8692976726620385 40.44362707354062 -1 0 0
2591 1 29.636820144373733 4.888516878174392 41.461276593106106 0 0 0
2549 1 27.69806272287407 2.5738713329949987 40.389505770487595 0 1 0
2658 1 27.55431343486711 6.498827232522623 41.59523310553598 -1 0 0
2812 1 29.146873240146665 0.054931352555963334 41.58506918483011 0 1 0
2805 1 31.711866939373056 6.25442371429222 41.10267802367518 0 1 0
2880 1 27.106917496489242 0.2300647006483411 39.30952137663847 0 0 0
2685 1 29.731025948546097 6.783871206111498 39.249987207848335 0 0 0
3071 1 31.46943779949498 4.281514637571608 43.59043264833355 0 1 0
3072 1 4.172827701921851 5.634857511553506 38.62381790542909 1 1 0
1895 1 3.1300924560821026 7.954326447529996 37.73811820330367 0 0 0
2027 1 2.914533468143251 7.230752242385122 40.825132153420554 0 1 0
1988 1 2.7329044532485907 10.708892901328905 36.625996577283075 0 0 0
2851 1 4.830995465269954 8.948722336619365 41.04526281731334 0 0 0
2693 1 4.021610270127686 10.436368571723673 38.99628843270291 0 0 0
2409 1 2.508517120488074 10.79276999464186 41.15589434637281 0 0 0
2642 1 2.0974273901557456 12.562259432073132 38.891137072765055 0 0 0
3032 1 0.32719953125974355 12.302389090703095 41.022082109050665 0 0 0
1884 1 4.918088457842842 12.243719832265995 40.885436087426434 0 0 0
1662 1 6.23228479737873 10.501851625408104 36.800275325337864 1 0 0
2700 1 7.141918722678521 12.37953668868584 38.62042408386732 0 0 0
2945 1 0.8202322538803033 9.819893308310345 39.04850528807892 0 0 0
2265 1 0.6157460700836318 8.129852451932537 41.01919165637943 1 1 0
2095 1 10.307156699114252 8.984701414900195 35.67588661769709 0 0 0
2392 1 10.342845688252405 6.153698289128429 36.80955049448393 0 0 0
2866 1 10.887530020460696 6.518274927692017 40.88262975854607 0 0 0
2550 1 8.5058447632361 6.225673151273551 39.16831700264793 0 1 0
2100 1 12.567615141304733 10.496319095174767 36.35036736479528 0 0 0
2568 1 6.086966264689601 7.9000173786786005 38.473799295855486 0 0 0
2641 1 6.519626225382048 10.419926237635055 39.735019445257926 0 0 0
2288 1 8.688161578595155 10.21991094772824 37.92365268201578 0 1 0
2605 1 10.534711747018406 8.501985222143821 38.67459768454953 0 0 0
2415 1 8.880935990469135 11.966524045118133 40.981715231114435 0 0 0
2352 1 8.58358429759728 8.380395929599738 40.92482227188128 0 0 0
2278 1 10.606054874563629 10.018781872994971 40.826699741293105 0 1 0
2093 1 10.658952497237877 11.769315703990143 38.575751889197626 0 0 0
2837 1 13.18641295011803 8.105309672541294 41.320146083285245 0 0 0
2140 1 12.518724775540367 7.81479338300205 37.09266427632757 0 0 0
2893 1 8.468893414029175 10.185163787742512 42.96640686183462 0 0 0
2833 1 18.87206472237569 6.263475131498958 41.26426002935109 0 0 0
2094 1 12.716318729900713 5.932041714236813 39.10587582858254 0 0 0
2070 1 18.721849677688102 10.423107557903638 37.48622395694615 0 0 0
2606 1 14.956852869493419 5.866609533825188 41.13112589977683 0 0 0
2540 1 12.860407917062576 10.010174711054194 39.12605476472034 0 1 0
1657 1 15.200752010410273 10.15632900624254 37.06317143743384 0 0 0
2646 1 16.64591476670734 10.238796359262613 39.58141923656812 0 0 0
2222 1 14.862063886194788 7.767516604948187 38.66512098941481 0 1 0
2795 1 14.92594064305628 10.150433716389912 41.56336245744921 0 1 0
2891 1 16.949398346911597 12.403517956969932 41.90588080817834 0 0 0
2864 1 16.691700515207284 7.988918906391244 41.07467300554923 0 0 0
3246 1 15.072921925095448 12.206224200031631 39.304076870089965 0 0 0
3027 1 16.67175793052314 12.63259829238118 36.89748908511014 0 0 0
2706 1 18.81335210701414 8.174267464721433 39.546229173117936 0 0 0
2638 1 18.5521048539021 10.160068807860231 41.63520396426748 0 0 0
3026 1 18.652903636471528 12.459017722803162 39.285773697733184 0 1 0
2373 1 22.580864357005375 6.469712756696962 37.16702129463405 -1 0 0
2819 1 25.455795998217614 8.534747601522838 41.41052581762572 -1 0 0
2264 1 20.828677591172756 9.913026980725771 39.320786555550995 0 0 0
2607 1 21.96073316579961 9.86360528967424 36.24932320230205 0 0 0
2025 1 21.246900599366324 8.082970359530885 41.698785805778 0 1 0
1507 1 25.790650357335306 10.639491280647855 39.68514877176713 -1 1 0
2195 1 23.20392221227073 9.982726432133212 41.40764546554677 0 0 0
2659 1 20.718878678617425 11.897701787735743 41.3097671765794 -1 0 0
2933 1 25.27410369623447 12.723968203017554 41.3763225261485 0 0 0
2413 1 25.74351384702806 9.171839234159433 37.44275294492497 0 0 0
2420 1 24.089462131194534 11.386780218638334 37.27533549436315 0 0 0
2754 1 22.890347711963724 8.72326912971012 38.64739518159312 -1 1 0
1136 1 23.21759333443459 12.087553050801546 39.62784636399728 0 0 0
2160 1 26.93836128856448 11.478670468401598 36.78853287970268 0 0 0
2015 1 21.051644679741365 12.276494911423164 37.78309591034484 0 1 0
1584 1 29.44811134510413 13.131796212749753 36.7947347662991 -1 0 0
2343 1 32.762185921208946 6.5874787118992915 38.233097961193785 -1 0 0
1861 1 27.6467216025303 8.395252174558038 39.69007009612054 -1 0 0
2260 1 31.19874336416974 9.012068100622145 38.0599370798991 0 1 0
1823 1 31.59208995539439 10.828017060440521 40.8412917726289 0 0 0
1856 1 29.923477390918944 8.675588406701328 41.09375918666276 0 0 0
2355 1 27.51821283737218 10.674263057108902 41.59715011708424 0 0 0
1860 1 29.04714077287067 10.697186123086826 39.084760441177444 -1 0 0
2142 1 -0.12362003366614845 10.609595489486143 36.2659085715528 1 0 0
1825 1 29.556233489502503 12.843952491268292 40.73035586630019 -1 0 0
2143 1 31.57455775005158 11.947870901484166 38.39511525029644 0 0 0
1916 1 27.616168966720267 13.283731904967235 38.69788672409577 0 0 0
2440 1 7.031872804671673 18.25080475912619 37.07954916281563 0 0 0
3189 1 0.41190593142333204 13.013792589591452 36.587242001062165 1 0 0
2205 1 0.10696994812132755 14.342635278655974 39.106358676392155 1 0 0
2272 1 0.5290703095927651 17.604126569522787 36.39262174145978 1 0 0
2697 1 4.7913729704879975 16.567852878681723 37.30862052952325 0 0 0
2090 1 2.5117553717833365 14.65224207192713 41.22374591733537 0 0 0
2649 1 4.668914499915013 18.737058872783102 39.20095987283633 1 0 0
2632 1 2.356141371677119 16.89903953638483 39.13498768580729 0 0 0
2673 1 4.740339618422547 16.683890962895212 40.97814031835574 0 0 0
2463 1 2.708305779466845 18.668042179280665 41.40585949430993 1 0 0
2165 1 4.8890797703995394 14.347719895582498 38.95747331201439 0 0 0
2681 1 0.601202166859761 19.04748648374819 38.998293798275675 1 0 0
2781 1 0.5306493912496341 16.84271576690671 41.29270357286033 1 0 0
2347 1 7.218399512356399 14.82751448914444 36.888376675600924 0 0 0
1892 1 7.217180540167497 16.43420065728867 38.98530177689669 0 0 0
2383 1 6.979065623522401 14.589221472959956 40.85342698480049 0 0 0
3205 1 6.978599345545338 18.875297230860248 40.89118450745948 0 0 0
1878 1 11.00494566097749 14.488109320829578 37.16149693566586 0 0 0
2454 1 9.062083426439571 14.072342845726448 38.9846390057024 0 0 0
2667 1 8.818054678370356 18.948244774631487 39.04756512203513 0 0 0
2157 1 10.815122490541183 16.41839740159288 39.296063718702044 0 0 0
2164 1 10.570062118124625 14.422827432314664 41.33118178939386 0 0 0
2163 1 8.812634347706965 16.545212931471053 41.22654144832634 0 0 0
3142 1 11.058455201109783 18.651569989654057 41.708601044399806 0 0 0
2218 1 12.864300749753673 16.650731815366733 41.171678422308894 0 0 0
1935 1 12.771872733484177 14.58524202456207 39.400617967200844 0 0 0
1707 1 12.868773196765964 18.376320884519725 39.158226901156944 0 0 0
2060 1 10.957912201832844 18.431402760948206 37.23832494692817 0 0 0
3214 1 10.833546273395775 16.742199181804377 43.24458465162733 0 0 0
1959 1 12.6053707110398 14.319614410730587 42.90314245099117 0 0 0
2422 1 12.72875393845353 12.128374458872738 41.202775517926405 0 0 0
3193 1 13.467014506049637 16.706826495942156 37.036328082406996 0 0 0
2403 1 19.453184072263927 14.277857026982572 37.11328543052959 0 0 0
1806 1 16.795022316281187 17.207459141699978 36.706856747426734 0 0 0
1684 1 15.120616933789591 17.056540087191276 39.1135803544126 0 0 0
2133 1 16.859686904873037 14.381482722869587 39.242102711223374 0 0 0
1808 1 14.685024216547989 14.60296324637148 41.177413505241205 0 0 0
2608 1 15.122826737390016 18.66111577710831 41.57322599492037 0 0 0
2991 1 16.80741699331262 16.694998995585998 41.48420104303441 0 0 0
2676 1 16.951168430788325 18.880107903355793 38.860188147951696 0 0 0
2928 1 19.09214205939395 14.350119161270609 41.455083445004256 0 0 0
2418 1 19.47737276639954 19.023104081776196 36.84345905013595 0 0 0
2510 1 18.817949909546485 18.26904152116439 41.141214364475026 0 0 0
2548 1 14.425597394394346 19.215694085138324 36.68051540975456 0 0 0
2455 1 12.972363591014538 18.93527429605306 43.45506159159812 0 0 0
2684 1 22.800777599909562 14.104143239135947 37.12404935529759 0 0 0
2660 1 25.282481523623638 16.176519505073788 37.02167678586746 -1 0 0
2470 1 18.931216827250193 16.455971878874095 38.726084450076684 0 0 0
1790 1 21.489499340359117 16.50304519162491 36.63398327124082 0 1 0
2671 1 25.011187307843027 14.187294583173136 39.05052947431482 0 0 0
2131 1 21.19045929199234 18.97474345806086 39.218638275658435 0 0 0
2898 1 20.849545155390995 14.488797942295967 39.46399778913692 0 0 0
2767 1 22.970428755837265 16.471593078420486 39.20250754219561 0 0 0
2172 1 22.95796381067902 18.732676432346867 37.119227792002356 0 0 0
2158 1 22.766537522919098 14.219448067331623 41.19536541666841 0 0 0
2818 1 20.882970915099726 16.88923052190443 41.44632527099668 0 0 0
2235 1 22.99374728825912 18.915036147284365 41.31483293394829 0 0 0
2400 1 25.030232655622807 16.20706407434558 41.44304039339971 0 0 0
2925 1 25.0018668766677 18.24942921452211 39.337988264269306 0 0 0
1886 1 27.51586069655522 14.708657973985188 36.211642786665344 0 0 0
2307 1 29.11192660743182 16.374564504892273 37.24270743474332 -1 0 0
2739 1 28.77089335124667 15.452282885907694 33.46754279639191 0 0 0
1765 1 27.15751199167594 18.604092837069658 37.67210566123072 -1 0 0
1567 1 31.568921473397154 15.627243538322727 36.79706007300872 0 0 0
2074 1 29.56503580092227 18.478844091779997 39.69166802836911 0 0 0
1530 1 31.096142173851803 18.59324166466764 37.190556690981126 0 1 0
1999 1 30.326394829850795 14.664962386517429 39.07556507317535 0 0 0
2156 1 31.882410303129372 14.474423314855931 41.24207959011039 -1 0 0
2527 1 31.938720181580035 18.672751779815624 41.09333858553478 0 0 0
2753 1 29.70402441450319 16.31403446377949 41.19733111364432 -1 0 0
2682 1 27.10916523266761 16.330434817064937 39.155267815261006 0 0 0
2603 1 32.16599668417423 16.66716083645043 39.13045219022813 -1 0 0
2428 1 27.002046565195002 18.508622772632243 41.171895973564155 0 0 0
2886 1 27.364699232711214 14.938161145955114 41.58771302957464 -1 0 0
2436 1 6.284775741499651 23.234099401162222 37.092928151098725 0 0 0
2537 1 2.332799371289375 23.088385189619878 36.62068072196411 0 0 0
2153 1 4.027680621301275 26.173974393126414 37.131165854858864 0 0 0
2448 1 4.621699904047217 21.041828603248174 40.82831379041754 0 0 0
3237 1 2.7977196404965 20.92379996096988 39.03721920443426 0 0 0
2944 1 0.5312443579958149 20.90255244586522 41.52565375957904 1 0 0
2434 1 4.172306360838396 23.357733742884022 38.71126334261838 0 0 0
2410 1 2.491869514368059 22.949821477321496 40.921779276551035 0 0 0
2500 1 1.714652144163 25.237574035774646 39.124183767884 0 0 0
2309 1 0.3151175645400942 25.118438551916153 41.23612600302921 0 -1 0
2717 1 4.3276013607303785 24.987652130281862 41.060261110422 1 0 0
1996 1 0.3527142246977794 22.575912377774852 39.02251526806343 0 0 0
2211 1 0.31522348905253655 21.128487751561458 36.86003529157419 0 0 0
1975 1 31.740733355683332 24.62749059366779 39.033947483313426 0 0 0
1490 1 8.976128844260368 20.87843393970906 36.93349918361799 0 0 0
2447 1 8.829026665526326 24.97975039476295 37.35022208656723 0 -1 0
2727 1 6.270000560884383 23.27214421813079 40.70419003933324 0 0 0
1375 1 6.480598057708479 20.807376599531683 38.54206743847753 1 0 0
1929 1 6.8290371781195836 25.539539194251585 38.955847631964176 0 0 0
1904 1 8.467384735407295 23.286342782838112 39.336483025840245 0 0 0
2191 1 11.030663926096667 20.381323979514885 39.79511740972427 0 0 0
2438 1 10.470519811856372 22.88133551284794 37.771167920742165 0 0 0
2242 1 10.76442979719543 25.262839135000718 39.20784419009435 0 0 0
2155 1 8.657181077601953 21.01303736410811 41.027079177039305 0 0 0
2631 1 10.621563709380176 22.783192412392456 41.056774530917714 0 0 0
3039 1 8.850942563861604 24.89126956821211 41.16722129211622 1 0 0
2226 1 13.001823384552667 20.82576220348337 41.40592265339732 0 0 0
1167 1 13.164586857868343 22.776613962823763 39.6091140204868 0 0 0
2224 1 12.666319012158239 20.830867526129232 37.69558859662469 0 0 0
1957 1 16.352272890797945 20.753992216081578 36.60710852839469 0 0 0
1431 1 12.778193476540745 24.873823483922465 37.42115066759206 0 0 0
3182 1 12.594340361813623 24.856530028641433 41.59331836130427 0 0 0
2038 1 14.927046923838237 22.8063729835187 37.019282615168706 0 0 0
2177 1 16.831877370498518 24.94227679134923 37.144112007968666 -1 0 0
2199 1 14.968517947841999 20.34685616034159 39.09889864059532 0 0 0
2437 1 15.364324325194374 22.766623728045037 41.32739522109624 0 0 0
2221 1 17.040805844770738 22.72106700778735 39.04735826893637 0 0 0
2125 1 17.166699350568457 20.650968343646404 41.23746329379583 0 0 0
1866 1 16.9229588547107 25.19855000522708 41.18464892025476 0 0 0
2248 1 14.736030311349086 24.749784460239557 39.28464273079111 0 0 0
2509 1 19.023152029682542 22.808440915856902 41.02521512394604 0 0 0
3221 1 19.380281688164075 20.66472054028139 38.908265877172305 0 0 0
2072 1 18.993344433976365 25.449078074190556 39.40770588110112 0 -1 0
1169 1 18.69829957820285 22.616741629717904 36.98910791096007 0 0 0
2743 1 17.345328993027255 22.81381293644085 43.28614730172232 0 0 0
2745 1 23.130722969488286 20.78199546856086 39.09163815189959 0 0 0
2238 1 22.6493006650291 25.363172383721228 38.4579330315995 0 0 0
2507 1 21.600100694155064 20.941781997364888 36.69094589008842 0 0 0
2771 1 21.125771669813695 21.335925279772106 41.252620406901556 0 0 0
1425 1 25.328806772065036 20.87692924893716 40.83846830458285 0 0 0
1938 1 25.549189131226235 23.0597505019928 39.25327510810187 0 0 0
2524 1 20.63701492037635 23.376636147670922 38.622883389097645 0 0 0
2460 1 21.215160913081906 24.955235698108932 41.048080597650795 0 0 0
2431 1 25.54805368490456 24.975625717157694 41.08115425620435 0 0 0
2487 1 23.04016761369235 23.253783860782164 40.54519887409047 0 0 0
2452 1 23.446694882892228 22.82439795060376 37.504124380333 0 0 0
3273 1 20.947898312966277 24.437683949927195 36.37847483661181 0 0 0
2967 1 31.036285348664535 22.466075807028307 37.23304891729875 0 0 0
2277 1 29.004982746206696 20.46186150292955 37.34592504292289 -1 0 0
2009 1 29.358984164722653 24.885462173434718 36.35352263292288 0 0 0
2680 1 31.434072040126416 20.482330869509973 39.23299558309071 0 0 0
3036 1 29.731521607372628 20.633989876766123 41.24691895020408 0 0 0
2748 1 27.645041927625158 20.65154493873842 39.9139450740662 0 0 0
2714 1 27.800505021121673 25.00422947246072 39.20573648394311 0 0 0
2466 1 31.93336974094503 22.904651789019812 41.266248629280526 -1 0 0
2539 1 27.56293535853733 22.86463343320153 41.399573799708065 -1 0 0
2174 1 27.36561392332467 22.892718912653304 37.29207689666432 0 0 0
2006 1 29.555250824074434 22.682110217060256 39.38297585648838 0 0 0
2971 1 29.91779188996073 24.743322460890035 41.32838735146215 0 0 0
2243 1 4.563491509917019 30.726213468247455 39.82919466471815 0 0 0
2766 1 2.112305747555761 26.879533487435133 41.483652753650915 0 0 0
2734 1 4.376867463118773 27.366316567178547 39.89056783795046 0 0 0
3045 1 2.810970207787517 30.745103689191197 37.42256783294509 0 0 0
2246 1 2.324713471261898 28.179313414825973 38.45014654207026 0 0 0
2184 1 32.951059764219124 30.236993136927126 38.256189048692605 -1 0 0
1666 1 3.659200264269915 29.482282524224463 41.74610993228091 0 0 0
2273 1 2.397368826128969 31.55204887384689 41.83091214396578 0 0 0
2815 1 1.1734175297199303 29.30387637885143 40.63176194707724 1 0 0
2506 1 6.92765895684132 31.464228320091372 41.193251890052665 0 0 0
3266 1 6.592737352796973 29.486981698242875 39.08554478799529 0 0 0
3008 1 -0.002770781823642207 31.609090723307034 43.188395052408275 1 0 0
2340 1 4.5745763705799085 31.122395437997746 43.40568707068372 0 -1 0
1180 1 13.241347429888297 29.602789500618194 37.06190241015999 0 0 0
2578 1 8.652713162637045 -0.018061135113439163 36.89368396774829 0 0 0
2380 1 11.158715011198359 31.735220800507257 36.77427591610654 0 -1 0
1423 1 10.555406778497721 27.085922528847266 36.77150699221214 0 0 0
2337 1 6.993099329344337 27.273355244421886 36.68152836038592 0 -1 0
1712 1 7.47800017737072 31.090687821688086 35.055702116217745 0 0 0
2445 1 9.03790660016363 29.177134265778918 36.87993094807973 0 0 0
2782 1 6.934764941667561 27.26137164278997 41.27790917229113 1 0 0
2331 1 8.73302321567492 27.31403139813417 38.911636047287054 1 -1 0
2128 1 11.132461629387182 27.530680770747836 40.74454780578032 0 0 0
2294 1 8.782943900542545 31.281558727004036 38.692867095695604 1 0 0
3061 1 11.141332500942728 29.18106105367336 38.60451462297006 0 0 0
2804 1 10.906995277916323 30.795602581791954 40.998959729830595 0 0 0
2764 1 8.803073981609883 29.2288486657956 40.8961052134688 0 0 0
2496 1 12.831839576392621 31.64096348146141 38.793446578764595 1 0 0
2577 1 19.971075113789723 31.43620766870876 36.726651979938644 0 -1 0
2862 1 16.657770996573728 28.993572127760086 36.76523960625297 0 -1 0
2799 1 13.332736163784057 27.46382475088138 38.76839645335082 0 0 0
2098 1 13.17351955497862 29.39908314407518 41.22431679283352 0 -1 0
3025 1 14.902087373698468 26.720231509638968 36.63422534711935 0 0 0
1905 1 15.025085134053455 31.58873592961276 36.6595657647501 0 0 0
2656 1 16.56363162249808 27.17626156366276 38.90371730032155 0 0 0
3253 1 14.988938060349515 27.23962242910703 41.39651995893824 0 0 0
2232 1 15.102174500717613 31.234731839295687 41.15031782965783 0 0 0
1538 1 15.412427749202068 29.522434877344843 39.02585785845458 0 -1 0
2831 1 17.034144710553758 28.97153826087879 41.10721644364863 0 -1 0
2559 1 17.278194938533687 31.49354316876383 38.2993340671704 0 0 0
3314 1 19.164632977136712 31.23550347110447 41.166868991403895 0 0 0
1847 1 19.01945377284538 29.365709517647005 38.89082153750242 0 -1 0
1740 1 19.352383266889305 27.543685970537624 41.11502593502847 0 0 0
1933 1 18.55236430652247 27.13794758423269 37.33405229387366 0 0 0
2807 1 25.2378799184365 0.24728913601886768 41.33936155750061 0 1 0
2770 1 26.06181854235255 29.31003474631452 37.50299460180268 0 0 0
1291 1 23.743683894849127 27.120529679704415 36.511251441795046 -1 -1 0
2711 1 21.62966109435433 29.069182352547163 36.923573052582285 0 0 0
2482 1 23.733051733717716 31.563614668457603 37.67343881697794 0 0 0
1843 1 20.96926497786054 27.197553545069795 39.02472556481337 0 -1 0
1782 1 23.28062631512751 27.133832110770825 41.02266973558248 0 0 0
2202 1 21.353585890349933 31.02104438727762 39.20188526610355 0 0 0
2541 1 21.42176025645663 29.30968211465865 40.95284117592281 0 0 0
2930 1 23.53792352627079 29.101836551873706 39.08538143543948 0 0 0
3281 1 23.45780208740113 31.507701170686126 40.934265226565365 0 0 0
2300 1 25.52531558501161 28.433349261687987 41.28603647513915 0 0 0
2240 1 25.475870438469755 26.779111501763882 39.10756945339837 0 0 0
2301 1 25.802810172599923 30.826285722482762 39.83299692572977 0 0 0
2011 1 32.0554645087076 32.699849358096195 38.726623063077305 0 0 0
2292 1 33.00140714155413 27.40539356489386 38.596937619007306 -1 0 0
2492 1 27.292392093321283 26.95110386542132 36.61211216532744 0 0 0
2557 1 27.70780300493523 28.775446421234292 39.400977340540095 0 0 0
2305 1 31.512293795359927 27.179569986578528 40.96034547572306 -1 -1 0
1159 1 29.308674373316506 31.293346808844195 39.60917677317262 -1 -1 0
2262 1 27.853158026076972 26.76153563094277 41.22388699155169 0 0 0
2255 1 29.566793725472397 26.362495649939895 38.374019078672895 0 0 0
2471 1 30.68265056517095 28.650855682875434 38.87206332559758 0 0 0
2493 1 31.503455648664527 30.540535679619072 40.876670851195755 0 0 0
1794 1 29.384952178092522 28.75856916037323 41.50326690084121 -1 -1 0
2071 1 27.292476644728886 30.8692279538224 41.64976406303433 0 -1 0
3093 1 31.59911126645995 29.15064316161206 43.257655176735945 0 -1 0
2119 1 4.490106155239595 1.8765112990474744 43.11746609216089 0 0 0
2760 1 1.7226074528834778 3.693190898164861 42.708481797754594 0 1 0
2779 1 32.971766232620794 2.191126709628601 43.10300059320809 0 1 0
3102 1 4.86876855897275 1.713003056926335 47.38693211095013 1 0 0
3306 1 2.673868049458147 1.8920711080566366 45.23066673069205 0 1 0
2338 1 2.337862814140823 4.0223855359662455 47.34561361505098 0 0 0
2722 1 4.875071113917833 3.5144441512521376 45.135646231156365 0 1 0
2791 1 0.24774268280590134 2.0283660366482197 46.89660851709811 0 1 0
2847 1 0.2862177458000726 3.8963724535865882 45.29950213406768 1 0 0
2820 1 4.215920873141199 5.530348016599794 43.70037986582053 0 0 0
3137 1 0.568583002823923 6.164749486926225 47.37319758840323 0 0 0
3077 1 2.3978054257034436 0.1866498578351137 47.125869526065365 0 0 0
2903 1 2.1721242042124533 0.7499782624994779 42.88600368029841 1 0 0
2564 1 32.96983069484138 0.26699715187403206 45.168545396351405 -1 0 0
2503 1 4.62374427998294 32.981574749082135 45.295056781406345 0 0 0
3046 1 2.275970153627045 6.120060782860659 45.15436814056323 0 1 0
3109 1 4.658544531349802 3.9694279801020422 49.15842163932259 0 0 0
2756 1 0.030154182532035383 0.10982516791599126 49.290049537845654 0 1 0
2621 1 6.5314338546809525 0.13707667175387833 43.21875283240268 1 0 0
3301 1 6.864414734611271 2.125680939460927 45.27351881155181 0 1 0
2299 1 6.85733752977556 4.059155428474917 43.26003453133915 0 1 0
2773 1 10.88759931851139 3.822609939659761 43.374522348064296 0 1 0
2858 1 6.644192538543143 4.065638947960524 47.355215766665275 0 0 0
2622 1 8.782662285586365 2.0427560005559453 43.09939302939522 1 0 0
2587 1 8.821231198106235 4.111752949473261 45.10765827182427 1 0 0
2595 1 10.402194000390873 3.9068352052531377 47.21513056364716 0 0 0
2339 1 8.432812442226064 1.9587467188764929 47.51452392842032 0 0 0
2491 1 10.481826135454185 1.6515202449734296 45.208437812745274 0 1 0
2832 1 10.858991323534958 -0.038163813828585975 47.234324139574035 0 0 0
2801 1 11.056915350301644 6.154463029934375 45.39251491576074 0 1 0
2615 1 12.721274589107669 3.962669236612318 45.37785186501785 0 0 0
2601 1 12.620478707693646 2.33433138414543 47.373691394552296 0 0 0
2857 1 9.298590706251789 6.096730007796189 43.16908501784229 0 0 0
3060 1 12.527295739660596 6.028699730764964 43.33790944639362 0 1 0
2612 1 13.232695859021035 5.586566410329358 47.30350438738901 0 0 0
3019 1 10.821846977245055 -0.06832314999941681 43.42238535869573 0 1 0
3153 1 8.4377425969498 32.95122697082632 45.50777966018829 0 -1 0
2275 1 12.903692381545962 32.74183185430082 45.52758142656374 0 0 0
2386 1 12.757803476457319 1.7191649413507832 43.19084613790163 0 0 0
2087 1 17.13103169852953 2.318787928121346 43.61986320027186 0 0 0
2556 1 18.88508341123572 4.54550909082526 43.668423341315915 0 1 0
2834 1 16.74210555858304 4.382138384684913 45.53547700799523 0 0 0
2547 1 17.473235043179823 2.033404913065192 47.04787018935041 0 1 0
3086 1 19.218755214947873 4.104421452917126 47.36681549091477 0 0 0
2836 1 15.079111400851525 3.4162468653426346 47.37577278462265 0 0 0
2803 1 19.59414712532515 1.8814410839303963 45.03774304019105 0 1 0
2571 1 14.619985737801262 1.7275045089506613 45.41798512773565 0 0 0
2508 1 14.91830508854966 -0.19179375089095865 47.39352052359344 0 1 0
3089 1 19.19893838602416 32.97506056999789 47.6080946486116 0 -1 0
2934 1 14.81862334384477 5.880139006836371 45.6465568879675 0 0 0
2542 1 17.152181490898855 0.12640757086669271 45.28040730525142 0 1 0
2768 1 19.514218001360014 -0.005357169540667606 42.96709398449001 0 1 0
2613 1 19.071524009910373 6.291296809138085 45.793570229094904 0 0 0
2031 1 15.160262399856446 -0.11143696083857312 43.21319819745432 0 1 0
3117 1 15.152700101502282 6.259701492818045 49.71248566224618 0 0 0
2322 1 25.449861819459688 6.389038681901742 43.39558702067909 0 0 0
2080 1 25.523912228669715 2.3352367761441513 43.314024521440416 0 0 0
3157 1 23.518259766663824 4.548263563363813 43.205851826093145 0 0 0
2365 1 25.714549099177585 4.065175376779184 45.39015720002389 0 0 0
3118 1 20.955498824522955 4.390625064421431 45.457030858366615 0 0 0
2102 1 23.31409470953398 4.027970119624018 47.12728476630028 0 0 0
3125 1 21.078321438244625 2.359438684942062 47.40804063280263 0 0 0
2844 1 22.915124283083788 2.098291333367808 45.134462159469955 0 0 0
2852 1 25.19022371057419 1.7700084689593036 46.60044464243896 -1 0 0
2332 1 23.114414718586794 0.027951926478004693 43.24487768558064 0 0 0
2908 1 23.527565065449423 6.426296895555597 45.191831587627696 0 0 0
2896 1 21.095338408650314 32.910819199000265 45.32853670154535 0 -1 0
2583 1 25.511102065818378 32.738855389887654 45.294553276183336 0 -1 0
2839 1 23.231465313376745 -0.0719619508029627 47.075553343686146 0 0 0
2590 1 21.161520497641373 6.43057574029777 43.426795756378226 0 0 0
2876 1 25.267077904649447 6.209305115305881 47.44365137194277 0 0 0
2825 1 29.89720598035355 6.3843717984482975 43.584942086172155 -1 0 0
2334 1 27.456230672928832 4.014501486740338 43.24579142940782 0 0 0
2874 1 27.792129547005047 1.7997000228300006 45.06878960711436 0 0 0
2620 1 29.28831328731279 4.1878207275414825 45.50070451144175 0 0 0
2842 1 26.943955260552425 3.827228529921192 47.600673194069664 0 0 0
2563 1 31.136593184814068 2.208742640187156 45.466356652381876 -1 0 0
2884 1 31.522916942150673 4.3828037295989875 47.10221365938766 -1 0 0
2846 1 29.73217503183326 2.2561421243408843 47.76615373512823 0 0 0
2657 1 29.764431951353806 2.289876323276446 43.01128403140678 -1 0 0
2780 1 32.37411037206932 6.369951938385476 45.050549787249665 0 1 0
2076 1 31.14094845945569 0.021434496600456966 43.18169418053228 0 0 0
2353 1 27.496409134110802 0.2639316065290466 43.13357382993907 0 0 0
2867 1 31.12021377387821 -0.13006628939283568 47.131632332946786 0 0 0
2513 1 29.57580820543934 32.95361920956814 45.10231679939819 0 0 0
3001 1 27.334990381286783 -0.11608441843466343 47.34474809034744 0 1 0
3161 1 29.574096321214714 6.163768158390998 47.58493858733027 0 0 0
2687 1 27.39352163669156 6.262616751097225 45.37929264495953 0 0 0
3049 1 4.671120523412021 5.9338912412383555 47.26520911864694 0 1 0
2593 1 0.6549506420753708 10.316602953934245 42.923630476813784 0 0 0
3138 1 2.5519125056198573 12.677441829680033 43.30812325938176 0 0 0
2120 1 4.845575333178058 10.84460615437672 43.23918153918675 0 0 0
3133 1 2.88343137733328 8.39420880156597 43.11904927321686 1 0 0
3110 1 4.433709704926957 7.883945199771972 45.24520107739663 0 0 0
3078 1 2.548550949020509 8.073750139100468 47.26545621257423 0 0 0
2878 1 2.604829666899313 12.578031178984185 46.982100817490725 1 0 0
2683 1 4.541988692961702 10.00265624235159 46.987050430851255 1 0 0
2792 1 5.195765483379667 12.4221430196287 45.21111105968287 0 1 0
2817 1 2.6455901006541565 10.175661881673538 45.28718539517547 0 0 0
2369 1 0.5131455748575392 10.380860674008211 47.86390149543943 0 0 0
2394 1 0.517846272186997 8.67778421445029 45.08750796053139 1 0 0
2721 1 0.41176008369426914 12.241097003729063 45.497590201569956 0 0 0
2916 1 4.514487537138439 7.900979058190118 49.24254491923323 0 0 0
2594 1 0.009532336479597966 12.483334198520577 49.4326296842149 0 0 0
2793 1 6.446331919479995 5.8462633919016636 45.31774682652619 0 1 0
2890 1 6.265994119526543 8.099716445536295 43.362151427226486 0 0 0
2599 1 8.334364965047 6.2848040804630205 47.21806668578461 0 0 0
2670 1 6.985638602823409 12.529429226978026 42.79184723110989 0 0 0
2856 1 6.584464109535911 8.05431340696011 46.87748864559793 0 0 0
2107 1 11.011159221567633 8.439446707049699 43.112339529151946 1 0 0
2730 1 6.895104570451232 10.202648224050883 45.15196973305248 0 0 0
2669 1 6.837689637924741 11.885326276498223 47.443968557033756 0 0 0
2384 1 8.895234072837617 8.045216818365677 45.23101027706026 0 0 0
3113 1 10.623232128596127 10.234961322850873 45.298272604142575 0 0 0
2351 1 10.733082733894761 7.9461718651379405 47.535487878887984 0 0 0
2387 1 8.66237737607305 9.910414475107192 47.38954416708254 0 0 0
2627 1 8.842499976452153 12.07876223661219 45.02985660582924 0 0 0
2479 1 10.499615453368936 11.96868831300525 47.340488515756 0 0 0
2918 1 12.883293764699793 12.563214348890751 45.547807425290245 0 0 0
3150 1 12.615588001808012 10.314712006942672 47.30383759012132 0 0 0
2393 1 19.123389551365488 12.77313704214232 43.52898838508937 0 0 0
2576 1 16.914433091455678 6.359352486822612 47.60847014380266 0 0 0
2315 1 12.955161694900898 10.367525847941703 43.93381915092579 0 0 0
3081 1 12.857932125733651 7.9435005439950945 45.643045426532964 0 0 0
2321 1 17.019188213084835 6.413386330500452 43.310427705097865 0 0 0
2089 1 14.541974464751592 7.760532939527389 43.664160500555546 0 0 0
2639 1 16.589346064210368 9.679969872494528 43.38400736833903 0 0 0
2894 1 14.70562377978248 12.371220794662607 43.2404037657757 0 0 0
2637 1 15.153407905497861 10.262782938491881 45.74853473070731 0 0 0
2828 1 14.88970776897973 8.219772911824883 47.661011052582964 0 0 0
2614 1 16.90422515806255 8.191848231367448 45.747047145005766 0 0 0
2636 1 16.86863206185837 10.688568847905227 47.55168939427239 0 0 0
2937 1 16.58900910183743 12.372851683832867 45.06395786925144 0 0 0
2675 1 14.73008569580855 12.471272722699544 47.42883446618078 0 0 0
2677 1 18.66784928996218 12.504128076455213 47.490638604983666 0 0 0
2932 1 19.513103967756223 8.495315520925299 47.38102303304751 0 0 0
2901 1 18.591855139152035 10.255405463121386 45.278088364514375 0 0 0
2865 1 19.1742513018471 8.034213520034218 43.40369177939046 0 0 0
2939 1 21.419024402995888 6.5575909782095065 47.811238302774065 0 0 0
2395 1 21.008262499488737 10.140211790944457 43.48730889228971 0 0 0
3070 1 25.261320634654773 10.745184387013461 43.735841292628976 0 1 0
2907 1 22.981059279335373 12.22088846356283 42.99763982993119 0 0 0
2719 1 23.480692516051626 8.39154528585777 43.5310453075663 0 0 0
2653 1 21.00429486745126 12.327774492154346 45.28767598177955 0 0 0
2398 1 21.21119583984466 8.183695707938625 45.47698631058007 0 0 0
2811 1 23.1659463021754 10.377033309862885 45.530127151082056 0 1 0
3122 1 23.688798071365873 8.298050208818244 47.54705646605782 0 0 0
2655 1 20.98310462385307 10.450289459135172 47.280411204710596 0 0 0
2391 1 23.156704636725067 12.079950383175959 47.650942496022594 0 0 0
2976 1 25.582559143464056 10.232089718260182 47.5151751891428 0 0 0
3098 1 25.487989609934328 8.472023728078964 45.47442508022214 0 0 0
1970 1 25.412905660768175 12.635817809095366 45.71672778834745 0 0 0
2679 1 25.42443972438234 12.585804365338513 49.36094777796217 0 0 0
2941 1 30.073886542541896 10.217556436692016 43.2228732498372 0 0 0
3198 1 31.893666987194926 12.306112745543421 43.430622922604805 0 0 0
2952 1 32.33048438247311 8.113143131141378 43.275742087527036 -1 0 0
2399 1 27.332573392606744 12.792098199105652 43.56937421177551 0 0 0
2132 1 27.651165051818307 8.357443223998514 43.44374740306599 0 0 0
2938 1 27.40769424648622 10.361671551917876 45.32337403202795 0 0 0
2624 1 27.586415906143298 8.37413252637093 47.51545936263142 0 0 0
2333 1 31.826853143852237 10.38010323214218 45.69667715591756 0 0 0
1912 1 27.438073293214465 12.666748837552912 47.55834060977044 0 0 0
2845 1 30.04315741783706 8.69549456143189 45.89151526987062 0 0 0
2552 1 31.943417750897645 7.801874642601466 47.373410675797196 0 1 0
3043 1 29.331792483144913 10.626674164361871 47.65482788473403 -1 1 0
2148 1 31.42054280124933 12.709820009831029 47.80242151658205 -1 0 0
3166 1 29.646892976435343 12.150833199295437 45.388527836582455 0 0 0
3194 1 4.972587327750971 18.94182961064427 42.85633778525354 1 0 0
2597 1 4.66856127499767 14.553130757620856 42.98833569147974 0 0 0
2495 1 2.622326454652501 16.82033105696744 43.08357482368446 1 0 0
3041 1 0.6240269109050048 18.709051886282342 43.421841161714276 0 0 0
2981 1 0.4469543268576067 14.49168721931676 42.95235921517266 0 0 0
2718 1 2.4003849928315297 14.561927453237644 45.22526699965557 1 0 0
3173 1 4.662709266670066 14.430069549218285 47.213713400926515 0 0 0
2179 1 4.209577153380847 16.679363605329527 45.39611355235906 0 0 0
2476 1 4.535520322928841 18.16350383916323 47.53148992868972 0 0 0
3206 1 2.4650498726887435 16.42808273329281 47.15502109148641 0 0 0
2977 1 0.6189900390974917 18.312095576956732 47.352802275262256 0 0 0
3177 1 2.797315834898943 18.70023251864231 45.278674820709746 0 0 0
2728 1 0.29429976428176413 16.295750852446456 45.29359318218123 0 0 0
2366 1 0.2936641348453073 14.471882404559839 47.478454833797926 1 0 0
3009 1 0.3741750852053102 16.485670959909054 49.51235487117613 0 0 0
2751 1 2.133078481992486 18.764154028427853 49.869532154689374 1 0 0
2855 1 11.033087017511171 12.31496753695304 43.15526346715358 0 0 0
2664 1 6.582142520839502 18.944839152360412 45.462459733168075 0 0 0
3201 1 6.457753928870201 14.591425567247782 45.18357790245461 0 0 0
3149 1 6.877385516445451 16.7319271934729 43.64371733067357 0 0 0
3169 1 8.438504726040373 19.083993471027892 43.295865724632826 0 0 0
2407 1 8.83302956733057 14.574936523038666 43.64368665090228 0 0 0
3210 1 6.69232362700432 16.324354539653005 47.30914655279519 0 0 0
2920 1 8.830949951166945 16.637703333598896 45.57001528505523 0 0 0
2954 1 10.709045803319324 14.406981811675065 45.40617243542943 0 0 0
2924 1 8.476102055939263 14.245533389123972 46.87778059256478 0 0 0
3209 1 10.734947635107796 16.357830955435944 47.57062874356516 0 0 0
2531 1 8.51658155787599 18.35281107667935 47.408915597152884 0 0 0
2769 1 10.65608022854477 18.643600812669707 45.34958185192992 0 0 0
3241 1 12.671914961121699 16.44518821989069 45.25685501071577 0 0 0
2312 1 12.919927555415057 18.6879506826571 46.87538005296631 0 0 0
3178 1 12.630687391796098 14.32061035436539 47.30478492499971 0 0 0
2959 1 17.625745992254025 18.853216079742943 43.55209295438002 0 0 0
2367 1 16.79916303654084 14.814179337321137 43.144938141804126 0 0 0
2674 1 14.854444430076471 16.632546421278036 43.403335502173334 0 0 0
3278 1 19.6996150417308 18.79593106276025 45.54823527900396 0 1 0
2996 1 18.669349580676435 14.602335283733083 45.53007427949983 0 0 0
2949 1 15.03571912398025 14.50590125841696 45.29674729178557 0 0 0
2955 1 16.771038389349627 16.583732003044982 45.43576682147807 0 0 0
2134 1 14.637505716867812 16.57117412980783 47.12760791333138 0 0 0
2713 1 19.159463544903904 16.744182698468027 47.17097164809161 0 0 0
3170 1 16.823232270837046 14.663070897092183 47.6322509907157 0 0 0
2962 1 16.974614870056627 18.633765314786388 47.328196341336294 0 0 0
2963 1 15.109195930860514 18.606103444675277 45.12071712703551 0 0 0
2348 1 19.070652143391936 16.626615135642517 43.60378202543316 0 0 0
3066 1 21.53383182080145 18.71992667255132 43.66116585127764 0 1 0
2412 1 25.09491678894236 18.913299631253068 42.964492088261196 -1 0 0
2644 1 21.21549665568837 14.526483170313556 43.45676518318603 0 0 0
2965 1 25.104405096409305 14.5380180449043 43.80639539812822 0 0 0
3021 1 22.96593439487451 16.786740955519896 43.14334785247384 0 0 0
2678 1 23.01683332296964 14.427511792532258 45.547822429934826 0 0 0
2652 1 24.96496429292039 17.03995476239149 45.310259204130205 0 0 0
2813 1 21.682652481817403 16.59383985099438 45.74179362645456 0 0 0
3213 1 21.180577489677432 14.351731097163514 47.58508349040719 0 0 0
2733 1 23.31768017775344 16.542487348019122 47.55104847601955 0 0 0
2716 1 21.56049096753957 18.665143544972956 47.63573037975983 0 0 0
2746 1 25.413403110894535 18.783610534117855 47.31057686356957 0 0 0
3186 1 25.392510654866594 14.613602762393244 47.42494826295255 0 0 0
2389 1 23.65671060568849 19.225521417343288 45.00020272235357 0 0 0
2974 1 31.821463341433102 16.486882610781546 43.13203401385074 0 0 0
2909 1 29.652419919636564 14.050109034528276 43.2110302063613 0 0 0
2784 1 27.074956311151606 16.729461646165326 43.42521314994759 0 0 0
2964 1 29.67413707355789 18.423712926740286 43.190920223971155 0 0 0
2897 1 27.660017433147715 18.756527457231815 45.32146294931163 0 0 0
2465 1 27.573289606941227 14.696481980912367 45.489958838158024 -1 0 0
3197 1 31.6137905570674 14.221286475069736 45.35756258968122 0 0 0
3257 1 27.252039375366014 16.66714983102427 47.16949385848144 0 0 0
2263 1 29.411095869571838 14.540674479818296 47.36286993770439 0 0 0
2710 1 31.365127674116486 16.637685074253884 47.4757893776074 0 0 0
2943 1 29.461177532395 18.79677539986303 47.51777234514006 0 0 0
2750 1 29.534599368752765 16.249921650281202 45.200019986870394 0 0 0
2724 1 31.698132516737182 18.507552468419544 45.194612318302134 -1 0 0
3030 1 0.4610047380290505 22.548086449985636 43.48400414149134 1 0 0
2432 1 2.5598902718933148 24.772054632594827 43.226597815589905 1 0 0
2919 1 2.583304683225577 21.112276109676802 43.47580242784793 0 0 0
2162 1 4.525084737464048 22.989647733858888 43.13313635574112 0 0 0
2475 1 2.7408262715992304 23.02211646175322 45.34392150693606 0 0 0
3297 1 4.895068043097996 25.12616859861041 45.21040423668709 0 0 0
2973 1 2.656793162366294 20.83954703321311 47.38735346874835 1 0 0
3040 1 2.4724714537225005 24.89389371355293 47.68263360003476 1 0 0
3218 1 4.730886216671488 22.909452303201256 47.28604171969875 0 0 0
2695 1 0.8447359648367903 22.839110728377328 47.34195041460655 0 0 0
2633 1 4.810756821770933 20.99244465056774 45.14599404062796 0 0 0
2979 1 0.6218569360641232 20.609526808439465 45.64203565014925 0 0 0
2950 1 0.7418549316038004 24.7055312027095 45.35682624922614 0 0 0
2725 1 6.328295824185973 25.009728132109817 47.46050514241978 0 0 0
3018 1 6.468477457896301 21.275324156425444 42.83267453849636 0 0 0
2699 1 10.882644149668705 20.9302946566901 43.20272837768793 0 0 0
2151 1 6.6767555049869785 25.077640970970737 43.12464927387266 0 0 0
2565 1 8.523305808276774 22.82607785550817 43.31237729439629 0 -1 0
2849 1 6.2626664494562005 20.113589921622648 47.690462923904775 0 0 0
2216 1 8.87024354799849 20.839635038240754 45.345755014064174 0 0 0
1961 1 10.707231875903663 24.784075186515675 43.24781333479537 0 0 0
2732 1 10.297701184017875 20.620527446673616 47.43554031891081 0 0 0
2790 1 6.572768976435372 22.833448852769717 45.09550649872184 0 0 0
2663 1 10.83403928695728 22.969757430146352 45.03237610096192 0 0 0
3265 1 8.49135615335184 24.856430613238985 45.27570098123122 0 0 0
3309 1 7.952533248883561 22.306792062494637 47.37654839380541 0 0 0
3013 1 10.546284052990828 24.753641622108027 47.43402324584322 0 0 0
2821 1 13.046184368915096 22.66869697175692 43.21445417624789 0 -1 0
2570 1 12.254043883963446 22.538496233153396 47.43487963918445 0 -1 0
3146 1 13.026659092702793 20.819760629810506 45.267213683511216 0 0 0
2672 1 13.207235121297302 24.885893809635473 45.136681567549246 0 0 0
2490 1 19.250951691355684 20.893414144567057 43.25684104282299 0 0 0
2374 1 15.079084781711861 20.903892947873473 43.16807031463518 0 0 0
2536 1 14.93242324632572 24.869117025757756 43.13630347070456 0 0 0
2736 1 15.100855374587487 23.018299881635965 45.33780419312841 0 0 0
3064 1 17.273678455339706 20.65100187241161 45.5440801271214 0 0 0
2910 1 15.015641393099413 20.766225652395217 47.37542117556296 0 0 0
2451 1 17.224620100570007 23.20397540109438 47.50440323088323 0 0 0
2762 1 17.034430695558623 24.763577108403382 45.135895163968314 0 0 0
2984 1 19.21493704337256 25.150550447539068 47.1797775129298 0 0 0
2453 1 19.18435576319863 20.575816849113473 47.659891604704825 0 0 0
2983 1 15.049620288320108 24.808320418620998 47.142645806487685 0 0 0
2708 1 19.11069666528648 22.567932041629774 45.49704223493321 0 0 0
2729 1 19.251664746358028 24.896527355173266 42.89039487734323 0 0 0
2478 1 23.163800474372245 25.068163415254837 43.087359016526136 0 0 0
3055 1 23.088313400564992 21.257625274592314 42.991805144987765 0 0 0
3249 1 21.326896529175908 22.771021196194752 43.36117062304386 0 0 0
2774 1 25.145754272461367 22.878850573516278 43.12819225426834 0 0 0
2776 1 21.26783436441036 20.77817035416938 45.555993547989026 0 0 0
3165 1 23.47462410363794 20.82449471600421 47.1917193552399 0 0 0
2489 1 25.605119673160967 21.375955807145072 45.473447800807584 0 0 0
3230 1 21.104327837855042 24.668295333807528 45.03973508587087 0 0 0
2906 1 21.031131677285796 22.915652058480646 47.3407826544178 0 0 0
2390 1 25.38084228123145 25.084850344846092 45.20251205898749 0 0 0
2994 1 25.362113636143057 23.074737948802404 47.69309014329511 0 0 0
2709 1 23.292511232562692 22.971994099562522 45.29347250089753 0 0 0
3285 1 23.29765112231171 24.769385681646767 47.26681354157351 0 0 0
2560 1 29.3975360406938 22.652712057851573 43.538024643682945 0 0 0
2788 1 31.791233924744873 20.671393113485323 43.558961531089324 -1 0 0
1176 1 27.308448702205897 24.82665087195573 43.41030360327443 0 0 0
3233 1 27.361955209576905 20.78566913718014 43.152972413447245 -1 0 0
3254 1 27.503532050941832 23.202539592887547 45.80960183872139 0 0 0
2457 1 29.295016941857458 20.72104096541173 45.49584968633503 0 0 0
3258 1 27.86077460625247 25.18331393045257 47.95460915964763 0 0 0
2253 1 27.186519662435288 20.61427909519765 47.65833348930758 0 0 0
2778 1 31.666948575350713 20.41138229971506 47.42525478476567 0 0 0
2236 1 29.542923055644078 22.924874881243223 47.46472033853205 0 0 0
3234 1 31.981917037758688 22.562208209343133 45.503717132929374 -1 0 0
2518 1 29.478815446901667 24.773388551940673 45.39188065615689 0 0 0
2749 1 31.44428112669248 24.539076372693167 47.584688079115445 0 0 0
2696 1 31.80046538507739 24.552775794596098 43.5569024213625 -1 0 0
3010 1 4.263040624644146 27.310297561125584 47.269359266768326 0 0 0
3014 1 4.8429043329670325 27.058222060675106 43.12953734949669 0 0 0
2247 1 0.10937429365333518 27.078217146145484 43.142892808169165 0 0 0
2686 1 2.5373204496526687 26.669691036380144 45.23590549397764 1 0 0
3002 1 0.30219809312994844 26.621846354183717 47.49320745136773 1 0 0
2504 1 1.9302345169903354 29.294206670587094 43.82420977488439 0 0 0
2270 1 4.472593158426687 28.885013230932316 44.980255253944605 1 0 0
3038 1 2.333008222182648 31.699897185361884 45.16482553034318 1 0 0
3302 1 4.2497991063966 30.907850312969586 47.43137097989182 0 0 0
3044 1 2.3662107305891023 28.991749400038465 47.12617766682852 0 0 0
3073 1 0.25899647044345797 31.268151723101393 47.48726361560374 0 -1 0
3035 1 -0.004837355370244011 28.74501102028239 45.626913798078505 1 0 0
2758 1 6.8247586378235745 27.323271970355414 45.18406560778284 0 0 0
3298 1 2.3553699015646323 31.375509425585776 49.43510384861605 0 0 0
2319 1 13.234490948373626 31.195619504341288 43.18137751253572 0 -1 0
2726 1 6.815677229710686 32.917105907291216 47.45490709548373 0 0 0
3015 1 11.11567601412133 29.07669162692354 43.222898551181366 0 0 0
3277 1 9.159150941822972 27.1679020595337 43.27357837358569 0 0 0
2554 1 6.651649516529492 29.197617789057347 42.90491076159061 1 0 0
2980 1 6.419130407872906 28.982638343114616 47.40288611646885 0 0 0
2041 1 10.750476126642898 26.74901410753482 45.41476676609438 0 0 0
3024 1 8.329798294177381 26.955856153162472 47.11608769550962 0 0 0
2982 1 6.499674640304697 30.809094822683534 45.23995383467715 0 0 0
1708 1 9.004558129129977 30.91663237908546 43.56697787053514 0 0 0
2946 1 8.716970730584942 29.207115492520874 45.35959816300135 0 0 0
2744 1 8.644778579194755 30.788420729663915 47.62046528068403 0 0 0
2827 1 10.756046821378547 28.982167861276892 47.628026752967266 0 -1 0
2738 1 10.752666507051378 30.882385750747915 45.736231458509444 0 0 0
2032 1 12.83494311905011 29.02029945945003 45.627868838157774 0 0 0
2794 1 13.038411453130497 27.10753922486491 43.32555781144354 0 0 0
2511 1 12.81297579424206 30.95055736698729 47.60403614736486 0 0 0
2775 1 13.318500970889074 26.91779620467133 47.218831741341404 0 0 0
3022 1 17.167790021596538 31.076097647031823 43.26797689147578 0 0 0
2588 1 19.121666766778947 29.277132345796648 43.19069284789854 0 -1 0
2285 1 16.97952901795854 26.986692688739698 43.28563693707305 0 0 0
3023 1 19.109443760567157 27.122127079118044 44.993336237401095 0 0 0
2502 1 15.07693177987249 27.029095793825523 44.98129690861326 0 0 0
3238 1 17.02804633688037 27.032232111561832 46.972670543154415 0 0 0
2081 1 14.977959265196672 29.357026171634725 43.18725504008109 0 -1 0
2797 1 15.149164642938995 29.099018643022507 47.349579034872036 0 0 0
2252 1 14.897517517368163 31.040696426194817 45.55505859677696 0 0 0
2251 1 17.202002290197147 28.90907275318346 45.22919734521685 0 0 0
2345 1 19.17275391014454 31.15367358169134 45.37195708967501 0 -1 0
2566 1 18.99885550519584 29.53783548483974 47.496561763365364 0 -1 0
3217 1 17.17690017492658 31.573522387537643 47.49918725592817 0 0 0
3033 1 21.101586516460074 27.167265843677562 43.20081746675505 0 0 0
2515 1 23.341469742315667 26.801679505972455 45.239614870383214 0 0 0
3321 1 21.141956765540957 27.00564228762774 47.26847324093212 0 0 0
2742 1 25.05382880314735 31.03636972182589 43.06178009092789 0 0 0
2740 1 25.50498068975695 26.492193647215256 47.6228384810574 0 0 0
2783 1 25.325029149443225 26.90269784600777 43.234196111242035 0 0 0
2789 1 21.299448229226776 31.377525580295533 42.89543668682025 0 0 0
3101 1 23.367439277790748 31.05434930353812 45.15540236778581 0 -1 0
2940 1 23.220641998148096 29.10968690530987 43.179925850184816 0 -1 0
2459 1 25.279080823406517 28.905824394036543 45.46846750979408 0 0 0
2712 1 21.358001459515997 29.060031165667006 45.53901627660414 0 0 0
2999 1 21.2317243888735 31.22557634697152 47.441358751997385 0 0 0
3004 1 23.396586778316447 28.797189720248006 47.60017133321901 0 0 0
2870 1 25.39605858479515 30.889385486726322 47.62980778877348 0 -1 0
3058 1 23.26313211017593 26.67149210658204 49.34982911548047 0 0 0
3048 1 29.67470988925422 30.93897188445689 43.28874596825409 -1 0 0
2755 1 29.465261181026587 26.593549214670517 43.465016963775284 -1 0 0
3261 1 27.660113383649684 26.921285982705324 45.67886894194252 0 0 0
2809 1 29.50253779673723 27.158647537796053 47.54001862331288 0 0 0
2879 1 27.399391289577565 28.59741518714233 43.67073146522117 0 -1 0
3029 1 31.67153057007978 26.554406841709138 45.482919880187815 0 0 0
3042 1 31.75030148158997 31.160175491022247 45.44852966973413 -1 0 0
2555 1 29.85469577929158 28.89249743173058 45.234718078220524 0 0 0
2936 1 27.47663081509838 28.950095940398047 47.35974894242519 0 0 0
2841 1 29.289588236541245 31.08907007060816 47.131135389923394 0 -1 0
2514 1 27.31679747963315 30.89741195387619 45.014072680963714 0 0 0
3031 1 31.40810713177705 29.03173174287895 47.730608282232375 0 0 0
3129 1 0.017375461669407167 4.006726642894622 48.785656020740305 1 0 0
3074 1 2.259855779078873 2.316101547307422 49.29647838453389 0 0 0
3080 1 4.0615400519631635 1.8178016201877387 51.74596792636526 0 0 0
3107 1 2.946869519043114 4.504849145416014 51.22271755771063 0 0 0
3330 1 2.561744975003383 1.8452205126674794 54.056349533527545 0 0 0
3365 1 4.179120524956647 4.314002791762121 53.82062670916252 0 0 0
3076 1 1.0803015242819025 2.5025834861050487 51.808325517660144 0 0 0
3361 1 0.2410392970542105 3.6050233331695916 53.90790776206126 0 0 0
3305 1 4.426299508690831 -0.15246071187544383 49.45161489051571 0 1 0
3333 1 4.532439021413842 32.96801106918466 53.44217838403455 0 -1 0
3134 1 2.501669598772837 6.266900971764398 49.55289682790078 1 0 0
3108 1 0.30577893159989145 6.060744518294386 52.14859414094174 0 0 0
3075 1 2.068183148549932 0.08468846067777991 51.29062668880114 0 0 0
3329 1 0.5698098532290357 -0.15042318472583358 53.633173785424745 0 0 0
3112 1 4.659316659899798 6.494460815206685 51.4700636410729 0 0 0
3368 1 4.612254338105371 6.448346187386722 55.73185413743374 0 0 0
3364 1 0.5537575995205496 6.055091860246937 55.43161038992257 0 0 0
3336 1 4.974757795209454 1.8123819985648828 55.537801445972725 0 0 0
3020 1 8.414200157394422 3.7822352103905135 49.447895021594704 0 1 0
3334 1 6.2815819051380375 2.5312145014943317 53.17651922699672 0 0 0
2796 1 10.878728160013427 1.8289334348627706 49.74772005838597 0 1 0
3111 1 6.3899678386852425 4.1768600785902175 51.36706507828205 0 0 0
2830 1 6.483142192355592 1.7063769975923226 50.15579058823151 0 0 0
3084 1 8.46438531402693 1.9918471494308079 51.50698273431713 0 0 0
3115 1 10.763762882919593 3.5664641531999832 51.30409510457829 0 0 0
3338 1 10.50815883730666 2.2649515688257744 53.83703830635873 0 0 0
3369 1 8.426270135058365 4.155566969018132 53.6170493075551 0 0 0
3116 1 9.151767856241204 5.931360597451296 51.35709764441845 0 0 0
3079 1 6.73895540777128 32.76536400615665 51.721785477094116 0 -1 0
2826 1 8.88037577142674 -0.17068290605107803 49.63613630211984 0 0 0
3337 1 8.659942328276756 0.1956213410996849 53.610043896446406 0 0 0
2731 1 12.850694534730074 0.02408536056818501 49.401524737189106 0 1 0
3083 1 10.968690646851584 -0.1421127935023284 51.64183220108997 0 0 0
3373 1 12.705648680257092 4.103344546981059 53.67052200677913 0 0 0
3340 1 8.225332697657864 1.8490363384774988 55.663502594034156 0 0 0
3088 1 12.637905152937783 1.6616064238502586 51.643214136905826 0 0 0
3082 1 13.370578789958815 4.117536928538484 49.44758257540428 0 0 0
3366 1 6.539321577729238 6.127560422711164 53.70516133865507 0 0 0
3120 1 13.054478689002572 6.119596486077 51.30318925873817 0 0 0
3339 1 10.955682934039196 -0.08634994030441644 55.48423882614667 0 0 0
3372 1 8.897999038520581 6.37755394639218 55.44630468475873 0 0 0
3341 1 12.769729838328985 32.94936014469869 53.47109174000794 0 -1 0
2580 1 14.916532500247092 1.8096163866744641 49.87742540290214 0 0 0
3097 1 18.950537462305764 2.456609188662145 49.49763905828066 0 0 0
2835 1 16.69603059214024 3.984894802666391 49.55165180379174 0 0 0
3092 1 17.013307279987437 1.7881933843999436 51.714939684305705 0 0 0
3119 1 15.006404405756763 3.847674463381591 51.96072243808015 0 0 0
3123 1 19.006599094352044 3.943459488546798 51.62448113473206 0 0 0
3342 1 14.75167185582755 1.8682861627477692 53.878018491195434 0 0 0
3346 1 19.262633558392167 1.873998494955468 53.70339522852884 0 0 0
3377 1 17.116142630705838 3.988724031359628 53.65769188636655 0 0 0
3091 1 18.834006547406933 0.026258679494134435 51.89463334583965 0 0 0
3318 1 16.91572672351817 0.04703729105080809 49.37076961007287 0 1 0
3345 1 16.64724360323879 -0.08614323884299874 53.500439433260986 0 0 0
3121 1 18.859740992772018 6.423525984515587 49.34595528373451 0 0 0
3374 1 15.071104400335326 6.222355639896787 53.60886412608615 0 0 0
3378 1 18.906755291831633 6.257955028491348 53.55090896821623 0 0 0
3087 1 14.901694826483753 -0.20490644980680117 51.905478198789304 0 0 0
2868 1 20.997852275530448 4.249811389751086 49.46947951712043 0 0 0
3094 1 23.088475308461216 2.0874185952042805 49.20586747064 0 0 0
3158 1 25.050877284762887 4.2430034535562156 49.61724311170646 0 0 0
3096 1 20.996788034857275 2.3547450752150225 51.3797159933973 0 0 0
3100 1 25.37750284603918 1.9937468249126264 51.58528221014995 0 0 0
3127 1 23.250963817701727 4.497858598177027 51.14657088727694 0 0 0
3128 1 20.898860931823346 6.301183373219687 51.477759498581605 0 0 0
3350 1 23.451148454517575 2.5451757597388758 53.28494785736655 0 0 0
3381 1 21.064979626641936 3.9487006744242845 53.649720473063255 0 0 0
3385 1 25.012607997167997 4.137248333422898 53.539127636473054 0 0 0
3095 1 22.95613599335985 0.24396907298620543 51.29534656564802 0 0 0
2808 1 20.82532843514051 0.14884974276111188 49.42992963658033 0 1 0
2840 1 25.343533285647837 -0.12389823621230703 49.584299853021854 0 0 0
3132 1 25.56564297735958 6.231055376090461 51.72189546878746 0 0 0
3382 1 22.955825272440883 6.115295782747314 53.58059782001024 0 0 0
3349 1 21.338230578958427 0.04621141546920689 53.663754762538744 0 0 0
3154 1 23.507669366648173 6.905874007976097 50.02016749715476 0 0 0
3353 1 24.958824802504488 0.051913209177658334 53.51608268552072 0 0 0
2873 1 27.160943213296907 2.1544177649876097 49.483061259825355 0 0 0
2344 1 31.910285843189488 6.316777888180079 49.85190470873899 -1 0 0
3106 1 31.775944940447246 2.2812899065787855 49.600971128657164 -1 0 0
2869 1 29.469251849062662 4.148450205658561 49.67155365448074 0 0 0
3131 1 27.376737144513783 4.525057257319242 51.58048731065414 0 0 0
3104 1 29.387699369797204 1.6934953556539045 51.324726453113115 0 0 0
3135 1 31.75822354878133 3.6473496114469564 52.063051607260114 0 0 0
3354 1 27.290711180403026 2.324162699629601 53.4768857201157 0 0 0
3358 1 31.539227420611457 1.5201957837574358 54.01704122695766 0 0 0
3389 1 29.608603187739714 3.923714181496013 53.53882333248752 0 0 0
3390 1 31.431611688936687 6.033640390026387 54.02077192631508 0 0 0
3357 1 29.172729438415846 0.028891027680310693 53.14365981049247 0 0 0
2848 1 29.63253625409055 -0.16393631092758254 49.30251738177548 0 0 0
3099 1 27.278621067442067 -0.02836256135902858 51.34331877352964 0 0 0
3136 1 29.792361175107704 6.536861671406068 51.81105296269683 0 0 0
3103 1 31.77885821893517 0.48807098090304374 51.74359318432782 0 0 0
3362 1 2.4616766483836057 6.033679099224079 53.640076644861864 0 0 0
3141 1 0.5361759210355589 8.028165260109786 49.16416070296669 0 0 0
2912 1 2.4946861798736775 9.812290976944924 49.13503888015379 1 0 0
3174 1 4.230151397761136 12.134737633309236 49.33921904593542 0 0 0
3139 1 1.8516392025935857 8.252979387176849 51.52092903602494 0 0 0
3144 1 4.360979362293582 10.2539349910002 51.50467025151024 0 0 0
3171 1 2.5045155855233197 12.265091483647435 51.55223269057483 0 0 0
3394 1 2.195351209609327 10.087886452751764 53.70791860808789 0 0 0
3397 1 4.337659814486231 8.257365928737697 53.64225484954261 0 0 0
3429 1 4.6805840170217685 12.231227306095573 53.581684365472206 0 0 0
3140 1 0.42076698879149166 10.294287790183922 51.38542833946824 0 0 0
3425 1 0.6312520417392256 12.351889855315289 53.42027227675477 0 0 0
3393 1 0.46049417249400765 8.316527928647776 53.764575819777754 0 0 0
3145 1 6.602228069002705 6.232897555438921 49.31117264428637 0 0 0
2895 1 10.603508991535783 5.587333944846561 49.14446542155454 0 0 0
3370 1 10.845677573379557 5.914109116328394 53.23972346126809 0 0 0
2900 1 12.87903637946481 8.009351892462446 49.26221734210134 0 0 0
3175 1 6.593726228482668 12.190163949831291 51.74582425742798 0 0 0
2860 1 11.061525634728067 10.095537692089023 49.575418897599434 0 0 0
2600 1 8.72615512400711 8.070165586540003 49.72500343435849 0 0 0
2887 1 6.308524818257816 9.851109641714604 49.65695034647995 0 0 0
3143 1 6.61006701374112 8.338674907463828 51.655682200370805 0 0 0
3398 1 6.500064878058493 10.318559817232364 53.61622401786456 0 0 0
3147 1 11.106985085839622 7.935072669295675 51.482393800287596 0 0 0
3148 1 8.72598528909199 10.356067111290795 51.60361363092612 0 0 0
3179 1 10.570029010237374 12.41882867740493 51.36078208686811 0 0 0
3401 1 8.700648476908633 8.03259373737633 53.37621715673179 0 0 0
3402 1 10.74867696669935 10.43608416517006 53.269248020273984 0 0 0
3433 1 8.671902240730885 12.632451058346959 53.506092987462594 0 0 0
3405 1 12.945260065842863 8.083167953301954 53.43597916854524 0 0 0
3152 1 12.803892256813135 10.39906906111043 51.7882953462153 0 0 0
3437 1 12.873243866691062 12.504499101650925 53.698548501743815 0 0 0
2993 1 12.403515785501419 12.450920264864772 49.292976297163875 0 0 0
2961 1 16.9677536232405 8.543512316882063 49.51889351444902 0 0 0
3124 1 17.091833144777077 5.99336509866266 51.533843808021714 0 0 0
2929 1 14.735354353331065 10.408156828837349 49.534201556246735 0 0 0
2904 1 17.016382939015568 12.425251164224541 49.740273113255824 0 0 0
2921 1 19.306279067873888 10.311307598154851 49.31839807851298 0 0 0
3151 1 14.714843084994834 8.416639239430294 51.392928410392535 0 0 0
3155 1 18.999016902612407 8.477717296293823 51.718300991070755 0 0 0
3156 1 16.74775844866068 10.50520827932792 51.480340725995156 0 0 0
3183 1 14.56472879636629 12.496790562130883 51.59443836698209 0 0 0
3187 1 19.120707843865326 12.636969062038126 51.60290977070923 0 0 0
3406 1 14.8677123649717 10.468198806017941 53.72889522057167 0 0 0
3409 1 16.620189949218542 8.450876064451899 53.39482940725209 0 0 0
3410 1 19.049156876948228 10.399336894261033 53.51615963873379 0 0 0
3441 1 16.971222966664516 12.486949087563342 53.63403822110474 0 0 0
2715 1 21.06314800262907 8.466437473629147 50.14313906278777 0 0 0
2899 1 25.643506713858418 8.367626121564864 49.82543717180414 0 0 0
3190 1 23.181269370585223 10.376817751791867 49.50090847825131 0 0 0
2931 1 21.06984309074872 12.507848188008873 49.71847883033923 0 0 0
3159 1 23.320888135524502 8.811899050710291 52.001435021136864 0 0 0
3160 1 21.106019219839432 10.588405570932277 52.16205399238991 0 0 0
3164 1 25.494911587353666 10.709590282037945 51.30921940847551 0 0 0
3191 1 23.43916672373678 12.61141139829764 51.734794074987086 0 0 0
3413 1 21.155505440310883 8.159336759127347 53.48817763401042 0 0 0
3414 1 23.58357390910755 10.670388217357 53.877286396770366 0 0 0
3417 1 25.239501292255405 8.381694650361771 53.707181326278466 0 0 0
3445 1 21.183285393080453 12.871488598167296 53.79619788691079 0 0 0
3449 1 25.519553564681488 12.54461648639266 53.73545249986113 0 0 0
3384 1 20.646399187147676 6.121172043231057 55.25567618727994 0 0 0
3416 1 21.39613710723629 10.392339092526585 55.65948169512714 0 0 0
3386 1 27.48527417786842 5.7052139152481045 53.89665750647887 0 0 0
2881 1 27.314017792382536 6.225779349836745 49.331980578666794 -1 0 0
2688 1 31.461673546897444 10.076148774633772 49.30045354361343 0 0 0
3130 1 27.580430465193515 10.68524441663939 49.63630978447791 0 0 0
2911 1 29.306436910544704 8.342331672753758 49.55328982780702 0 0 0
3126 1 29.5839200238449 12.841228514469178 50.006825474558205 0 0 0
3163 1 27.580558595280824 8.311389199577087 51.76698653696295 0 0 0
3195 1 27.32300402212745 12.874110255827997 51.64354691291258 0 0 0
3167 1 31.943638550548098 8.420263879344912 51.71286767391504 0 0 0
3168 1 29.649057257162532 10.071977508631814 51.59350406448806 0 0 0
3199 1 31.68260026833193 12.399145885164161 51.97625018081655 0 0 0
3418 1 27.989914743523556 10.393155418556937 53.80091722118507 0 0 0
3421 1 29.544098899002883 7.966723051162682 53.805852580379046 0 0 0
3422 1 31.751831611974083 10.313779378198287 53.746050879702516 0 0 0
3453 1 29.539776933029994 12.556503725744747 53.67853137658223 0 0 0
3451 1 27.548305882025186 12.860995684384903 55.65537676718715 0 0 0
2978 1 4.218869595418005 16.062634429922102 49.490771530595104 0 0 0
2850 1 2.089623481121778 14.404184061377608 49.76053756227894 0 0 0
3176 1 4.394586286917957 14.071514379921785 51.316069441355125 0 0 0
3203 1 2.51001511081658 16.67378993433554 51.633457413727285 0 0 0
3208 1 4.651123653746799 18.6092305687023 51.65278609058744 0 0 0
3426 1 2.4630128326391882 14.061835655936106 53.5522319985214 0 0 0
3458 1 2.402908875488299 19.20045102618206 53.60347272780617 0 0 0
3461 1 4.445488220022974 16.374543248385958 53.55969269758789 0 0 0
3204 1 0.4483827036242115 18.58675691309912 51.79377550199845 0 0 0
3172 1 0.17439206196964382 14.569077972044402 51.82827155966972 0 0 0
3457 1 0.6588716104747512 16.626286728214662 53.82115117527276 0 0 0
3462 1 6.581739463791432 18.178114142812596 53.743641240712364 0 0 0
2927 1 10.616838381498635 14.257883766627014 49.312811567370424 0 0 0
2704 1 8.575207173960944 11.931741017383851 49.393534922568946 0 0 0
2947 1 10.752008530295297 18.537327121073403 49.147455506258 0 0 0
2324 1 12.998002143562646 17.06215192039785 49.32562276312842 0 0 0
2951 1 6.6471033995534645 14.231332351536382 49.28840623737618 0 0 0
3207 1 6.683541567962025 16.09287891174278 51.47482306758403 0 0 0
2737 1 6.436347453216634 18.260545229920126 49.687015669126254 0 0 0
2956 1 8.559982379752386 16.29462380092681 49.36527357203532 0 0 0
3430 1 6.618503584464256 14.369403892024735 53.78771638983757 0 0 0
3180 1 8.756298065542497 14.328797867402663 51.478229730915885 0 0 0
3211 1 10.739845610750569 16.560370806272736 51.30778241442972 0 0 0
3212 1 8.568007021750493 18.399073856077617 51.49783930130635 0 0 0
3434 1 10.741754676821635 14.18254015037688 53.7490591956611 0 0 0
3465 1 8.745055937682961 16.141607817609852 53.64870281479975 0 0 0
3466 1 10.594186847327244 18.295516037081153 53.83288589120506 0 0 0
3469 1 12.76844360807973 16.08294798279544 53.749277770006096 0 0 0
3184 1 12.662938073783275 14.597004909709813 51.532255735476426 0 0 0
2668 1 19.28326359158832 18.581747334499884 49.435303992890674 0 0 0
3282 1 17.052269364412695 16.682622772173506 49.42400459775625 0 0 0
2519 1 18.83408102497133 14.363960364395117 49.54735357278067 0 0 0
3216 1 12.700055426612074 18.45706092477231 51.780258879958886 0 0 0
2958 1 14.923794410284431 14.46429794123926 49.299246525093345 0 0 0
2992 1 14.980179948340993 18.60675920812667 49.31433216957781 0 0 0
3188 1 16.701543477446503 14.277775622273523 51.5660094698714 0 0 0
3215 1 14.990303446557572 16.471926692015447 51.75329996313634 0 0 0
3219 1 19.156766395409335 16.483151443166793 51.5769442992832 0 0 0
3220 1 16.51095186534004 18.55339543722313 51.58820462834933 0 0 0
3438 1 14.737163431951107 14.28215696893154 53.73115497686889 0 0 0
3442 1 18.92614034505549 14.596863619614961 53.445786118685305 0 0 0
3470 1 14.751010084498096 18.866462696038198 53.7498472270587 0 0 0
3473 1 16.76233952579514 16.53614789029312 53.75563272250345 0 0 0
3474 1 18.767401854305376 18.079640697264416 53.687377347164585 0 0 0
2935 1 23.31125028933297 19.055629659752174 49.67374453934988 0 0 0
2651 1 25.411914630665287 16.633677137787995 49.45892754964331 0 0 0
2648 1 23.322217398251247 14.281408340656652 49.477499261135186 0 0 0
2972 1 21.48004430112323 16.501061914970084 49.35243537425956 0 0 0
3192 1 21.318666354276267 14.724117209827519 50.92086680187009 0 0 0
3196 1 25.39125037627155 14.610274654442707 51.400184879784845 0 0 0
3223 1 23.301929986597244 16.695680391023267 51.434336951272286 0 0 0
3224 1 20.79201358708027 18.573204923582527 51.72439941870876 0 0 0
3228 1 25.093684771119104 18.700491081798745 51.612754687717924 0 0 0
3446 1 23.2852397972712 14.843587276756205 53.90625213780442 0 0 0
3477 1 21.12812114818861 16.540766839012544 53.68308518124049 0 0 0
3478 1 23.24526395012026 18.66337468867144 53.39463508406229 0 0 0
3481 1 25.409559394578203 16.563020575062254 53.47738074554436 0 0 0
3479 1 22.841109037026715 16.90591677699382 55.75179329338242 0 0 0
3225 1 31.33165997895785 14.886899357478296 49.73418277562144 0 0 0
3229 1 31.997386882447223 18.626728609153854 49.55190298897557 0 0 0
3222 1 27.668622987511043 18.47080109261746 49.74028486360576 0 0 0
2372 1 27.471907602621982 14.86418927767846 49.70154195223304 -1 0 0
2144 1 29.564551524798887 16.657673684482866 49.7685767576119 0 0 0
3450 1 27.364945004274144 14.641348386393148 53.65643624556677 0 0 0
3482 1 27.61901494148999 18.463803853152047 53.99707212961749 0 0 0
3200 1 29.402897511265778 14.532832138743 51.79030465046856 0 0 0
3227 1 27.45652678551383 16.687885077753727 51.82037083674559 0 0 0
3231 1 31.541399438540832 16.545836570627024 51.69782919146039 0 0 0
3232 1 29.72859964053658 19.028969193184437 51.77794760532333 0 0 0
3454 1 31.53687345509815 15.006564414444753 53.96409966478719 0 0 0
3485 1 29.322161136798833 16.5546998652287 53.75956829358054 0 0 0
3486 1 31.679316248041584 18.51964230761789 53.93882828536327 0 0 0
3202 1 4.368943243627641 20.595802434334676 49.78824554949196 0 0 0
3017 1 0.44220278627539394 24.989924642913742 49.68819640627263 0 0 0
2913 1 0.5263712033026781 20.628148635049705 49.25655152571376 0 0 0
2694 1 2.63089065684113 22.899930099083978 49.655435999956154 0 0 0
3012 1 4.604021470385953 24.96804521177655 49.71179959051502 0 0 0
3493 1 4.558311435896941 20.61594923327663 53.69730744360803 0 0 0
3235 1 2.21343296212115 20.99005731525266 51.69651106308302 0 0 0
3240 1 4.468664296672235 22.655064850233074 51.597349354139965 0 0 0
3267 1 2.281602734185846 25.083925243593807 51.722963721591626 0 0 0
3490 1 2.5007115884901756 22.569907696905215 54.15382156269809 0 0 0
3525 1 4.475763054080702 24.706999443039248 53.56081416530492 0 0 0
3521 1 0.3700747802599997 25.068525385190938 53.774834927624006 0 0 0
3489 1 0.18373827927242323 20.943383820748423 53.72271254838638 0 0 0
3236 1 0.6059524697202516 22.953918678466948 51.621903841141496 0 0 0
3492 1 0.22795086266118184 22.918729597568472 55.59598525328509 0 0 0
2957 1 6.333104215024834 22.46072492063074 49.535695414678386 0 0 0
3245 1 10.213774514174752 22.69680196593719 49.50634840129935 0 0 0
3271 1 6.723947145625988 24.553394798401225 51.429870472568645 0 0 0
3270 1 8.451334011518597 24.701870047004892 49.2651158771835 0 0 0
3494 1 6.536606854011127 22.34512703281273 53.676237864331505 0 0 0
3239 1 6.657903164940016 20.75363826503693 51.7130996617156 0 0 0
3497 1 8.669711842041009 20.25090460039579 53.225544415766784 0 0 0
2989 1 8.368611003768645 20.425341910156106 49.50528190222845 0 0 0
3243 1 10.728613073413221 20.61509518778367 51.42333241932793 0 0 0
3244 1 8.601134287522338 22.647600076916593 51.697880494967514 0 0 0
3275 1 10.590798650850205 25.186688707758442 51.19995599744447 0 0 0
3498 1 10.836752775274926 22.447695507033774 53.40799564465716 0 0 0
3529 1 8.80551568538436 24.749725029632362 53.08997992007586 0 0 0
3248 1 12.625355987408104 22.87214979867697 50.9069839497229 0 0 0
2477 1 12.748252868238241 20.84848717997544 49.100282100856155 0 0 0
3242 1 12.92195877940273 24.69586528289168 49.063182062184104 0 0 0
3501 1 12.656370540082046 20.568273914627227 53.33497607410444 0 0 0
2512 1 16.822011762445367 20.68770937165997 49.36542370038591 0 0 0
3533 1 12.857538674061853 24.543784863934558 53.38760425486927 0 0 0
3286 1 18.915419071883285 22.619480789835105 49.29920627038672 0 0 0
3247 1 14.758273638341333 20.55283895177496 51.23276633275858 0 0 0
3056 1 17.37469671834515 24.78411078835703 49.503177234604806 0 0 0
2997 1 15.095820389094834 22.770423447994002 49.30748868397704 0 0 0
3252 1 17.053400900158096 22.704931369511904 51.70911586632847 0 0 0
3279 1 15.189075799255706 24.780935588879665 51.42537192000563 0 0 0
3283 1 18.82309471350787 24.600841175510105 51.60755182344528 0 0 0
3502 1 14.719645289866952 22.517376967684154 52.928137403580976 0 0 0
3505 1 16.652731046592695 20.707252503071167 53.498629205017075 0 0 0
3506 1 18.6821487667031 22.321259849546845 53.70669625996509 0 0 0
3537 1 16.79041131332318 24.732415353047493 53.820300663773054 0 0 0
3251 1 18.87064921731554 20.509087366128583 51.5415338324257 0 0 0
3539 1 19.135500058963995 25.006564639966797 55.18670315437552 0 0 0
2968 1 25.63396147109739 20.47763708336079 49.76711341788109 0 0 0
3003 1 23.31751700545487 22.988929008525897 49.23941670610067 0 0 0
3289 1 21.35662730789055 20.63181029768142 49.292607806744506 0 0 0
3028 1 20.88967813835285 24.686496220846983 49.20250448168934 0 0 0
3057 1 25.71383847625081 24.884880275550973 49.98096862065394 0 0 0
3255 1 23.01283573459204 20.711868295712275 51.49473123336055 0 0 0
3256 1 20.833524326580125 22.59131217180789 51.149080916904985 0 0 0
3260 1 25.442223239958974 22.640570857076824 51.33233180088876 0 0 0
3287 1 22.895816779244427 24.831417263826488 51.16878830807073 0 0 0
3509 1 21.04199247120393 20.819206510191247 53.50405311796675 0 0 0
3510 1 22.93925319665873 22.69344463713395 53.45093982175136 0 0 0
3513 1 25.319719914068596 20.76546248263719 53.41911259649581 0 0 0
3541 1 21.00572339521946 24.67261115168791 53.54039150877899 0 0 0
3545 1 25.038576801710672 24.813741798397555 53.45195277420801 0 0 0
3512 1 20.96581075503418 22.67782367865258 55.52147591013522 0 0 0
2877 1 31.818399768964476 22.601862627505575 49.23308892961363 0 0 0
3007 1 29.347159814031173 20.821898721018645 49.405288037994694 0 0 0
3262 1 29.81883964915344 24.70113471007794 49.83014057099501 0 0 0
3293 1 27.49148248077183 22.733664655509997 49.65237596932893 0 0 0
3517 1 29.469786382590463 20.632837149254808 53.83620089826594 0 0 0
3259 1 27.463185624500365 20.418851614765813 51.56556396994383 0 0 0
3263 1 31.598311767753607 21.117909107747092 51.685853483165126 0 0 0
3264 1 29.518535271381836 22.64588399088044 51.365916797736794 0 0 0
3291 1 27.809855389820388 25.026743256740115 51.7030592597158 0 0 0
3295 1 31.70666030439509 24.938548258262916 51.96271131771005 0 0 0
3514 1 27.574416860997523 22.70904154876319 53.39996770907333 0 0 0
3518 1 31.270453727663924 22.778988827305724 53.730488860464455 0 0 0
3549 1 29.34351951509402 24.921608593365967 53.659877797264414 0 0 0
3016 1 2.192363950333694 27.134553086170886 49.638945279608876 0 0 0
3047 1 4.654825646016188 28.668783704487353 49.62649312715448 0 0 0
3268 1 0.3896735967853967 27.1587376665676 51.5520040360549 0 0 0
3272 1 4.660388414714673 26.776410856650642 51.80885797224448 0 0 0
3522 1 2.507194559493931 26.964544020233717 53.48595795200384 0 0 0
3063 1 0.486496414027261 29.2430232525986 49.14292971753821 1 0 0
3299 1 2.643576373917658 29.096981615980354 51.58364499189418 0 0 0
3304 1 4.503625349202564 31.01945500653843 51.635165311232356 0 0 0
3554 1 2.7333744990138493 31.464385649220635 53.36676147911111 0 0 0
3557 1 4.5344879131753375 28.666032650156044 53.618948893096025 0 0 0
3553 1 0.6377830164048447 29.062101713530232 53.443670795311995 0 0 0
3300 1 0.503076798642868 31.20050385631617 51.3415469765794 0 0 0
2763 1 10.82546276265803 26.824276327646245 49.10533238386506 0 0 0
3050 1 6.332706111899203 30.979807606465886 49.64471268038105 0 0 0
3558 1 7.066945025239157 30.843526421066674 53.47207938806968 0 0 0
3274 1 13.083689817794422 28.88963144848581 49.37044293659213 0 0 0
2986 1 6.59577936987379 26.76358182468064 49.547501329721065 0 0 0
3303 1 6.806429831782337 28.942543161744023 51.6954255600423 0 0 0
3526 1 6.862469943309337 26.516251238591327 53.47648649064341 0 0 0
3530 1 10.90672907855202 26.659328139041236 53.4696806015405 0 0 0
3052 1 8.424210479793745 29.236968508684704 49.726135826090896 0 0 0
3276 1 8.551710221985642 26.84865342594772 51.12416147104817 0 0 0
3053 1 11.085454099420796 30.78569315881535 49.678214353208574 0 0 0
3307 1 10.549039413444243 28.661268509261795 51.71852560975863 0 0 0
3308 1 8.843227709529748 30.940438094184405 51.78943088975504 0 0 0
3561 1 8.765294287939053 28.63982066726283 53.53479521238765 0 0 0
3562 1 10.67458682794618 30.881933814174765 53.867225718235346 0 0 0
3565 1 13.041292218554473 28.785928848212784 53.443964315520546 0 0 0
3312 1 12.718590451873109 30.864018400991203 51.59343245202658 0 0 0
3280 1 12.797084587305315 26.77210063218747 51.53474431671213 0 0 0
2806 1 14.760042445695825 31.326411361319632 49.84814625562875 0 0 0
3068 1 14.891855025100218 26.822225818258847 49.52909863922834 0 0 0
3090 1 19.120436887591058 31.274916263712093 49.91549439227052 0 -1 0
3538 1 18.952188957641198 26.735750227793616 53.34305442035296 0 0 0
3534 1 14.929959336767803 26.775365623101422 53.45162285706302 0 0 0
3114 1 16.812752962468483 29.190919506704322 49.16953473932233 0 -1 0
3284 1 17.0565102426917 26.99628454155642 51.22558368475487 0 0 0
3311 1 14.86589910825991 28.990943044488464 51.61225890439437 0 0 0
3315 1 19.082254248275763 29.248685541758178 51.89383583645744 0 0 0
3316 1 17.062690027892415 30.88189942650817 51.63177364694501 0 0 0
3566 1 14.795330291500472 30.85664499123234 53.822230884440984 0 0 0
3569 1 16.96216371027991 28.717372916489936 53.89482127081089 0 0 0
3570 1 19.138229796121884 31.02807787341262 53.80280171673258 0 0 0
2829 1 18.79736752529303 27.454464953518865 48.786373164599205 0 -1 0
3062 1 23.124387995108027 31.28591640809194 49.52533370772454 0 0 0
3290 1 25.081292344469738 29.073155557714898 49.617772691741195 0 0 0
3542 1 22.629407887944094 26.827732379941057 53.3154455108518 0 0 0
3292 1 24.830290091544835 26.966035146467657 51.54995625132549 0 0 0
3288 1 20.471766189389818 27.121123783701833 51.11368725540722 0 0 0
3313 1 21.20947214110507 28.975138993164062 49.12466049387726 0 0 0
3319 1 23.069252175810142 28.922302843392824 51.42232050134372 0 0 0
3320 1 21.029285997486355 30.799465469205483 51.81551750841222 0 0 0
3324 1 24.94371966520753 30.950017017259828 51.557201859291865 0 0 0
3573 1 20.932273065557684 28.89529362679206 54.104918046800506 0 0 0
3574 1 23.22143400563153 31.155090043519497 54.03879345828015 0 0 0
3577 1 24.967068344559735 29.00731618328207 53.54264187034243 0 0 0
3226 1 31.818836958864008 26.854248551320733 49.6441846934413 0 0 0
2843 1 27.549239694050637 27.235751093189478 49.63578638385253 0 -1 0
3322 1 27.757146758738372 31.04453366730982 49.41234179031801 0 0 0
3065 1 31.78553924976708 31.267279397163136 49.59383706874242 0 0 0
3325 1 29.60449867024312 29.05136481685101 49.68317971152903 0 0 0
3296 1 29.583274370727214 26.9298380398839 51.643851585320625 0 0 0
3546 1 27.160752662925137 27.02700730170648 53.215963124048265 0 0 0
3550 1 31.516420247028822 27.124835670088448 53.79685870208913 0 0 0
3323 1 27.345304986648188 29.33171896393127 51.414842858568974 0 0 0
3327 1 31.51058918397597 28.90774962612759 51.73434755855455 0 0 0
3328 1 29.86906991091806 31.124913567024613 51.49853346700083 0 0 0
3578 1 27.399238192397757 31.112607821884573 53.385406013190334 0 0 0
3581 1 29.498271791980006 29.02292645999828 53.838718407414355 0 0 0
3582 1 31.47000702860529 31.373734639111433 53.913274291457604 0 0 0
3583 1 31.409486264492557 29.545655182783197 55.54813682644214 0 0 0
3363 1 2.5102656375807033 3.8522624807710497 55.863760673063815 0 0 0
3332 1 0.5796739176306492 1.5186532410290716 56.25899339232483 0 0 0
3586 1 3.001044558245257 1.9555521485408383 58.01046689287163 0 0 0
3592 1 4.7834135303847685 2.0249281512676642 59.894184762522315 0 0 0
3619 1 2.373028376916188 4.210513760502418 59.86123610567453 0 0 0
3621 1 4.707514988921864 3.9990802186012693 57.759315088578184 0 0 0
3617 1 0.40661090245513776 3.9808470974167824 57.395952520413985 0 0 0
3588 1 0.4684394397278513 2.0012295728627074 59.759794752783485 0 0 0
3620 1 0.43017891855509943 6.055136556589056 59.77418146633025 0 0 0
3589 1 4.836102716291228 0.05124621238312393 57.71358053856428 0 0 0
3624 1 4.715303331463028 5.884301211469126 59.762958795307576 0 0 0
3587 1 2.7716616376473713 -0.07024646478880742 59.763711752618654 0 0 0
3331 1 2.9011085997037624 -0.15613927105570646 55.83742559773027 0 0 0
3618 1 2.5789865706027943 6.050899503440793 57.638600278358865 0 0 0
3622 1 6.8192889528676 6.182523515340079 57.55837743266596 0 0 0
3585 1 0.8719784622596807 32.89537964452413 58.05099465467839 0 -1 0
3367 1 6.708620097231139 4.094279431440069 56.052758111260694 0 0 0
3335 1 6.612740111904826 32.870766097592195 55.800132089771225 0 -1 0
3623 1 6.769075201135089 3.961122278544444 59.59498504236602 0 0 0
3371 1 10.650663027327974 4.050624590929888 55.88195999358638 0 0 0
3590 1 6.578063224042589 2.02216843754848 57.83669935873016 0 0 0
3594 1 10.401638044285328 1.6335687344538063 57.60042153507345 0 0 0
3596 1 8.82653483049464 1.809859900959097 59.83331998488274 0 0 0
3625 1 8.813474830787028 3.5592360103502187 57.83379451721625 0 0 0
3627 1 10.794048591435567 3.8741813626794643 59.4983896341893 0 0 0
3628 1 8.947460326295788 5.890035097545962 59.77921008901238 0 0 0
3593 1 8.921092790669771 32.87208074757863 57.808273818049635 0 -1 0
3629 1 12.966451425574393 3.579897442660798 57.97254341706577 0 0 0
3344 1 12.82928807071903 2.2411148339401152 55.52836127625205 0 0 0
3600 1 12.629476939539982 2.0646857211920766 60.40605229311292 0 0 0
3626 1 10.901634281198529 6.228557510671681 57.94070821237103 0 0 0
3595 1 11.029280406931873 32.884686777259915 59.94797366101797 0 -1 0
3591 1 6.916414815476278 32.79892153404179 60.0166889702935 0 -1 0
3376 1 12.521454805496127 6.415592006971609 55.65825564163327 0 0 0
3597 1 12.808260848268244 0.2566281944523084 57.75366152915682 0 0 0
3347 1 19.31635556035844 -0.1216276278953981 55.612488497634004 0 0 0
3380 1 17.040601934469105 6.165942683808602 55.54106776233711 0 0 0
3343 1 14.50988801240381 -0.05276623507690236 55.52624338519001 0 0 0
3379 1 19.09668266475609 3.93297860241606 55.654242259815256 0 0 0
3348 1 17.08904363907593 1.840147002236341 55.49432144916739 0 0 0
3375 1 14.645588620093523 4.316937421108447 55.734645300995126 0 0 0
3598 1 15.07452409085822 1.3037364221132226 57.83634549818701 0 0 0
3604 1 17.145630557736162 1.939790686614685 59.98251606997644 0 0 0
3631 1 14.751998005025422 4.246371291135382 60.08258861009121 0 0 0
3633 1 16.803366676000948 4.03032565242933 58.09389222694762 0 0 0
3635 1 19.013650803271535 4.17987891553406 60.09384086589804 0 0 0
3602 1 19.023236130987083 1.8772247317814195 57.50895152379983 0 0 0
3601 1 16.982681892068324 32.87454548700299 57.48191513849862 0 -1 0
3603 1 19.12181401812334 32.96079996887486 59.76827163245111 0 -1 0
3599 1 14.896664410871676 0.24291421801170618 60.23314396507258 0 0 0
3636 1 16.833511099241825 6.197081162752784 59.72180041584642 0 0 0
3630 1 15.293908970207301 6.334220696322961 57.60733146566995 0 0 0
3890 1 19.26750582883301 6.205902788485363 61.78757048469722 0 0 0
3352 1 21.52121649921934 1.8993489593483321 55.533050015603884 0 0 0
3383 1 23.09599155161604 4.2150988772578755 55.92259325383203 0 0 0
3388 1 25.171407386068076 5.9368827063709855 55.71888934199286 0 0 0
3356 1 25.247274333795758 2.1638483863659808 55.634397976603424 0 0 0
3606 1 23.622600428655335 1.888271818137123 57.9208185233635 0 0 0
3608 1 20.724460797086163 1.74227710895485 59.770315989227846 0 0 0
3612 1 25.0083271682407 2.186886560117787 60.25884919406129 0 0 0
3637 1 21.341482799640453 3.61155639458383 57.738775877072015 0 0 0
3638 1 23.196542922914993 6.206616696016917 57.74037372027413 0 0 0
3639 1 23.10686726546967 4.034184668857139 59.83260863276871 0 0 0
3641 1 25.23547110061449 4.289197295594073 57.68880271674249 0 0 0
3644 1 25.025878119666654 6.057028080482077 59.97480479702887 0 0 0
3351 1 23.4230971726682 32.99127365505153 56.0808431995804 0 -1 0
3640 1 21.40716117347428 5.838398646334112 59.424965547688224 0 0 0
3605 1 21.089081139654148 0.13785708519653378 57.87407690934077 0 0 0
3359 1 31.53371537231875 32.8867510544792 56.007052431905514 0 -1 0
3391 1 31.425734264743983 3.8070702504735228 55.74729832918427 0 0 0
3387 1 27.668043880784 3.8117715792549327 55.7261556943473 0 0 0
3360 1 29.35803553238954 1.9125583967053195 56.114409219119636 0 0 0
3610 1 27.101006304368077 1.6912259810105548 58.03939569685986 0 0 0
3614 1 31.756685030230905 1.552252367600234 57.74618627864182 0 0 0
3616 1 29.30963075789549 2.0984668574051577 60.005296449417024 0 0 0
3643 1 27.2113961306775 4.22291692679191 59.82484312672964 0 0 0
3645 1 29.600739633635783 3.670634468746767 58.053960880676044 0 0 0
3647 1 31.917619858328013 4.0657271400867465 59.622198881390275 0 0 0
3648 1 29.34385109444764 5.926114742418634 59.78570370537795 0 0 0
3355 1 27.213431342340886 -0.03738661987115438 55.485231665468646 0 0 0
3613 1 28.83183775369942 0.01126941494789288 58.125917336516636 0 0 0
3392 1 29.58384714804995 5.734398917967394 56.10484145674342 0 0 0
3646 1 31.577502463906335 6.096070513787742 57.803253528933645 0 0 0
3902 1 31.736490533589357 6.215297798073944 61.87214274738889 0 0 0
3642 1 27.44343156538357 5.896792982600984 57.518408603098564 0 0 0
3615 1 31.743252023611845 -0.10230942716102201 59.93232674249127 0 0 0
3898 1 27.222617659061942 6.34433431413502 61.641461017739154 0 0 0
3400 1 4.628998765299387 10.234300622241248 55.84540002944218 0 0 0
3427 1 2.4296664071309535 11.931274151665752 55.665666150935 0 0 0
3395 1 2.438598773162232 8.094211792738944 55.72605844771752 0 0 0
3396 1 0.3234777455386608 10.544597259158127 55.75357035015244 0 0 0
3650 1 2.5914340221960948 10.390826400054886 57.874884598765405 0 0 0
3651 1 2.432511816884322 8.141449671926544 59.73065621952298 0 0 0
3653 1 4.571433952671631 8.149780991320727 57.830298128339024 0 0 0
3656 1 4.874195789934521 10.503644479417627 59.87181734077431 0 0 0
3683 1 2.583209082482743 12.313963087322337 60.03956152395297 0 0 0
3685 1 4.75546487529964 12.676560709078519 57.988618917931156 0 0 0
3681 1 0.9494160327481003 12.335655345942653 57.937537656779206 0 0 0
3652 1 0.29328969448864045 10.436199857885505 59.83821170332634 0 0 0
3649 1 0.3908445573915278 8.189741663423408 57.470946135911895 0 0 0
3905 1 0.38742676218710437 7.992676608064918 61.86106107063649 0 0 0
3431 1 6.70852834546133 12.405583956807826 55.72655101380491 0 0 0
3654 1 6.9432257788953455 10.54039226557043 57.63866174367333 0 0 0
3937 1 0.6672803403978015 12.405191057712514 61.894684049790385 0 0 0
3399 1 6.511431293116897 8.26207065960802 55.27374304323884 0 0 0
3632 1 12.960751572593948 6.479060410143534 59.70456377949003 0 0 0
3655 1 6.69225322943601 8.111460849131465 59.89627962924333 0 0 0
3403 1 10.819544910473276 8.324068775908742 55.172138685585054 0 0 0
3404 1 8.824482392980116 10.458613564113 55.45323274646471 0 0 0
3435 1 11.032463996653282 12.110659680372146 55.96844402864603 0 0 0
3687 1 6.925554237209208 12.871911083287005 59.91882316788133 0 0 0
3657 1 8.828085344062753 8.289132371230025 57.731175151395185 0 0 0
3658 1 11.05576625873752 10.319916640777304 58.0858606590746 0 0 0
3659 1 10.613698180943434 7.957342354737571 59.85285246927267 0 0 0
3660 1 8.861658003178025 10.270603441333273 59.99226040911327 0 0 0
3689 1 8.994704922023141 12.305790929681336 57.95417071410072 0 0 0
3691 1 10.703103144806999 12.400402907981105 59.86415017206575 0 0 0
3664 1 12.977536464050853 10.267565604947835 59.85735829373239 0 0 0
3661 1 13.134354559522187 8.342729755731874 57.80662273342465 0 0 0
3408 1 12.922529393080094 10.154934567087059 55.95392634555336 0 0 0
3693 1 12.978825111245111 12.389182916299038 58.220717585939056 0 0 0
3917 1 12.99567634892493 7.9535902183452105 61.6703012553924 0 0 0
3634 1 19.16958304968316 5.972948438607504 57.69798821257999 0 0 0
3443 1 19.145554393803707 12.425354410251908 55.511909628455896 0 0 0
3439 1 14.864337584555168 12.369367384218823 55.434358256272944 0 0 0
3407 1 14.967826496510561 8.26354490135907 55.605657954606905 0 0 0
3412 1 16.888547608931987 10.429757551319195 55.659924490641316 0 0 0
3662 1 14.936945746771439 10.37118129729006 57.69435114682971 0 0 0
3663 1 15.031527492391524 8.37457209381147 59.81943086814504 0 0 0
3665 1 17.271502478296707 8.179852127691737 57.968243066366284 0 0 0
3666 1 19.084550000177575 10.05495514441337 57.863658526179044 0 0 0
3667 1 19.164293123990433 8.309628531597099 60.11576612016955 0 0 0
3668 1 17.04908868339765 10.272577075573627 59.94315638358739 0 0 0
3695 1 15.572185658170598 12.4486332369395 59.48078204636078 0 0 0
3697 1 16.960500462495098 12.414794506925354 57.52050516562875 0 0 0
3699 1 19.50001857802389 12.555183611338945 60.14561737608314 0 0 0
3411 1 18.772281254939656 8.454972623702401 55.37060046336205 0 0 0
3953 1 17.17373150434066 12.468652800445142 62.49440037395408 0 0 0
3922 1 19.04347961403451 10.32937965913592 61.90878481373045 0 0 0
3420 1 25.419819608502834 10.273274665607516 55.95664985467115 0 0 0
3415 1 22.852608148624096 7.955947447274398 55.71664966091174 0 0 0
3447 1 23.692275489143114 12.787588779292653 56.00496944928197 0 0 0
3669 1 20.802057690498067 8.04212270898664 58.068714516269864 0 0 0
3670 1 23.23157951264422 10.539727562531855 57.35353161040455 0 0 0
3671 1 23.180626008647188 8.512924423832386 59.27769644647216 0 0 0
3672 1 21.273702847097358 10.394489235444919 59.60148248551776 0 0 0
3673 1 25.37359637883522 8.077052647717066 57.8893199138637 0 0 0
3676 1 25.376142975093142 10.644976676803116 59.52548856924401 0 0 0
3701 1 21.110860491393943 12.395406209008952 57.585869293691346 0 0 0
3705 1 25.80275678373306 12.60535143016671 57.8032904649231 0 0 0
3703 1 23.083068840986922 12.503144335339059 59.75313754300243 0 0 0
3929 1 25.00266052011635 8.348022809777914 61.32984092581669 0 0 0
3926 1 23.239551991561207 10.356006899655265 61.602754179793834 0 0 0
3419 1 27.229115349037293 8.214118567584414 55.44180726884766 0 0 0
3424 1 29.69941017042488 10.280049350125873 55.89066691509458 0 0 0
3423 1 31.591854228747 8.220486492818695 55.96320720911194 0 0 0
3455 1 31.49051609926876 12.512495173592558 55.71448265875668 0 0 0
3674 1 27.524355378018676 10.166742996379456 57.687737094085065 0 0 0
3675 1 27.437520276602747 8.243244930606389 59.61624513840927 0 0 0
3677 1 29.298008813963758 8.059706273948475 57.36139975365266 0 0 0
3678 1 31.794080850400647 10.571215460322748 57.691257477890176 0 0 0
3679 1 31.32175046438476 8.143106712900586 59.59948322866591 0 0 0
3680 1 29.259063939423967 10.209806585936466 60.014602872032754 0 0 0
3707 1 27.139422664243284 12.455850512731338 60.062021869059336 0 0 0
3709 1 29.69471944865759 12.530813556411701 57.77045653800761 0 0 0
3711 1 31.595916674194406 12.555470861352518 60.13222866005968 0 0 0
3934 1 31.29332159947576 10.392817584732652 61.617834633843565 0 0 0
3930 1 27.265724923656013 10.245218148922596 62.0980903578945 0 0 0
3464 1 4.601589051067292 18.42361688728775 55.815717606370846 0 0 0
3432 1 4.17853527523738 14.227690444961981 55.82719475435755 0 0 0
3428 1 0.4255003284046212 14.082287923281669 55.58064417505602 0 0 0
3460 1 0.46357141465008034 18.659472491856214 55.781381318734056 0 0 0
3459 1 2.238944765519694 16.018045546813298 55.91194971831176 0 0 0
3682 1 2.3391737133344512 14.319764048434404 58.24340435371923 0 0 0
3688 1 4.7370845970913695 14.701155763463996 60.28863655760137 0 0 0
3714 1 2.645762426639571 18.259170749472148 57.734714155101244 0 0 0
3715 1 2.6370564431083534 16.34648995077429 59.847563014778586 0 0 0
3717 1 4.613518509670541 16.311695373992972 58.13121307664755 0 0 0
3720 1 4.638024374461186 18.484267690146147 59.80262715962354 0 0 0
3716 1 0.4292194287349444 18.38170297390717 59.97528228004935 0 0 0
3684 1 0.2536043662497349 14.544023330611578 60.11957426263718 0 0 0
3713 1 0.3417774578116494 16.650368819410705 58.0983842293551 0 0 0
3969 1 0.35886987553377453 16.647080340281235 62.258765922271905 0 0 0
3970 1 2.3736709072091533 18.649323164281178 61.70935400023057 0 0 0
3436 1 9.234454222418233 14.180437774811267 55.98216290387997 0 0 0
3463 1 6.335169782307858 16.445598944644857 55.874606691771646 0 0 0
3719 1 6.454655298005248 16.419306900837736 60.18630689432589 0 0 0
3686 1 6.800841930496075 14.241091740744558 57.561586379265634 0 0 0
3468 1 8.699178772325428 18.245823980581953 55.760134794579876 0 0 0
3467 1 11.046022495754281 16.459276632618 56.10388806987218 0 0 0
3718 1 6.785027698687047 18.505329972746654 57.891767940438925 0 0 0
3690 1 11.077142948261171 14.603296302712518 58.21793780072344 0 0 0
3692 1 8.855199474120257 14.27419797712489 59.99467770900425 0 0 0
3721 1 8.417370962595722 16.490067907973163 58.16235594816747 0 0 0
3722 1 10.977505160428334 18.58181261443265 57.61782455190709 0 0 0
3723 1 10.613985540368173 16.737681601835835 59.93480312251454 0 0 0
3724 1 8.755853083192584 19.09327408712357 59.60388886205371 0 0 0
3725 1 13.038479024703486 16.635418274355963 58.08892949020226 0 0 0
3472 1 13.056429534665215 18.87105431926136 55.81926007031991 0 0 0
3728 1 13.068835544751929 18.35315190733571 60.04688592179758 0 0 0
3981 1 13.224372454321792 16.298148568935215 62.31482350576288 0 0 0
3696 1 13.075655354890674 14.40301761863388 60.29405653651297 0 0 0
3974 1 6.449791252748698 18.88628625339934 61.94920577035805 0 0 0
3942 1 6.484432242542697 14.173602221269105 62.780629671004085 0 0 0
3440 1 12.523809173992172 14.103689067945687 56.0376586530583 0 0 0
3475 1 19.136989304647468 16.593273563042853 55.95421321940556 0 0 0
3476 1 17.21500985360165 18.905439759413735 56.09071702835393 0 0 0
3471 1 14.439790623836439 16.3010688145279 55.708488092568075 0 0 0
3444 1 17.078092888194433 14.560295504537644 55.78716209574391 0 0 0
3694 1 14.72848161219915 14.47391386802767 57.707557730300174 0 0 0
3698 1 19.128106087424744 14.192263720072633 57.71036291824748 0 0 0
3700 1 17.030777267118513 14.401814037668444 59.61433097322318 0 0 0
3726 1 15.091490878785935 18.508828655645146 57.95546524974894 0 0 0
3727 1 15.553427434627986 16.440746157510667 59.74062433017911 0 0 0
3729 1 17.442167657736462 16.775461266060784 57.65187024157253 0 0 0
3731 1 18.927556096764643 16.152564500932417 60.04072459246628 0 0 0
3732 1 17.321562933582495 18.365528419838622 60.156704590463576 0 0 0
3730 1 19.41148601432825 18.689005722830533 58.125692417146965 0 0 0
3950 1 15.174586125849478 14.26504592590484 61.987754924501886 0 0 0
3986 1 18.920925844992098 18.821020573270708 62.04853073933287 0 0 0
3452 1 25.09526516681962 14.825196870123595 56.03480726770597 0 0 0
3448 1 20.968379729530515 14.742950468169692 55.842927773323396 0 0 0
3484 1 25.489066698321214 18.57076666013597 55.610951740768485 0 0 0
3480 1 21.17273604259791 18.758220604845395 55.48761272701799 0 0 0
3702 1 23.42895357107389 14.639670492891467 58.08980926882839 0 0 0
3704 1 21.380720063118765 14.957573309547866 60.45559503472463 0 0 0
3708 1 25.24824016276674 14.652790932868966 60.079979069926374 0 0 0
3733 1 21.172371122147585 16.630709407774965 58.22095146437704 0 0 0
3734 1 23.43016440347445 18.657054895416906 57.81077142247042 0 0 0
3735 1 23.412427355318588 16.751067778316674 59.902953886690746 0 0 0
3736 1 21.2121508889588 18.669568176516083 60.2298803017601 0 0 0
3737 1 25.422320225321155 16.69171485583358 57.74817680089503 0 0 0
3740 1 25.46201756833455 18.749508377617722 60.12706051792645 0 0 0
3989 1 20.977383927153465 16.792297441175734 62.285748144777735 0 0 0
3456 1 29.703002614892025 14.83637039209656 56.11944728660967 0 0 0
3487 1 31.730506396690092 16.725476964583777 56.056324429042654 0 0 0
3488 1 29.527783559624734 18.523835837160174 55.87320143865374 0 0 0
3483 1 27.234771118518953 16.3863005036881 56.04348874938225 0 0 0
3706 1 27.567863733865256 14.299257360793003 57.78807321004238 0 0 0
3710 1 31.73773583583237 14.545753115988145 57.91770944117809 0 0 0
3712 1 29.39764724464179 14.431994136314211 59.83187367275914 0 0 0
3738 1 27.295387031666124 18.64949172000201 58.13554549690075 0 0 0
3739 1 27.471464275744403 16.54386023019256 59.68176868389205 0 0 0
3741 1 29.49716543788246 16.801698173743524 57.974535040707394 0 0 0
3742 1 31.69988179113569 18.636617178214006 58.1186201856515 0 0 0
3743 1 31.275184423042788 16.210135701952048 60.00546941758712 0 0 0
3744 1 29.311513178685264 18.917293428055178 60.19215821253467 0 0 0
3997 1 29.38250166318968 16.737983287196826 61.86415916535945 0 0 0
3966 1 31.631372127052067 14.374690296212401 62.312086256077826 0 0 0
3496 1 4.575246272328611 22.78653382702575 56.165475631262396 0 0 0
3491 1 2.3793507246353918 20.79943593796213 56.02411789194328 0 0 0
3523 1 2.4985416210794162 25.13451967261197 55.76312379498901 0 0 0
3746 1 2.338523119479636 22.947258674967884 58.033780984141934 0 0 0
3747 1 2.307683103917212 20.711520476238483 59.7214914732777 0 0 0
3749 1 4.58535478798292 20.712434899497808 57.96230090013103 0 0 0
3752 1 4.528818201484168 23.16631538818546 59.807877503766896 0 0 0
3779 1 2.240442454775438 24.823723441572632 59.5030022319127 0 0 0
3781 1 4.353364950090607 25.007787165502503 57.77774179517998 0 0 0
3748 1 0.016312275126603323 22.733240053415734 59.85545227014326 0 0 0
3777 1 0.1401190832620409 24.902119763953216 57.45507756161557 0 0 0
3745 1 0.2873453054755282 20.56815744293174 57.752887054163054 0 0 0
4005 1 4.292310721185847 20.53607378645755 61.71391531967259 0 0 0
4033 1 0.3798777026610332 24.941563322870852 62.04756266916989 0 0 0
3531 1 10.745707291457872 24.75013251951825 54.98783960657366 0 0 0
3495 1 6.821247872506223 20.337758070592216 55.58509483655676 0 0 0
3527 1 6.431521390184627 24.51576465339242 55.49513086466964 0 0 0
3751 1 6.637380146693757 20.782939517635523 60.13469852556217 0 0 0
3783 1 6.880717869580837 24.514221240097424 59.513504892746624 0 0 0
3500 1 8.800656745656733 22.684785859686766 55.37127398771647 0 0 0
3499 1 10.637187276678215 20.58332305140605 55.49822111087481 0 0 0
3750 1 6.705835639309016 22.355582695085946 57.832003200833725 0 0 0
3753 1 9.022701518985134 20.885548958181257 57.49322466904427 0 0 0
3754 1 10.853506567732168 22.62196966446625 57.568686897025245 0 0 0
3755 1 11.098355819322613 20.60642569266572 59.601385773502415 0 0 0
3756 1 8.93816895825263 22.639888390399292 60.05367238343968 0 0 0
3785 1 8.916607735441513 24.545495093497173 57.42409238460693 0 0 0
3787 1 10.697683275048034 24.48246775977502 59.67873903628925 0 0 0
3757 1 12.940717787095396 20.729756650153128 57.67919386080179 0 0 0
3504 1 12.704855483572452 22.51325859589201 55.685904043353375 0 0 0
3760 1 13.001392628485478 22.798214045304867 59.8175236869239 0 0 0
3789 1 12.844145107069583 24.90658765351896 57.59636424417413 0 0 0
3535 1 14.855112492238446 24.81693493503598 55.439921297833905 0 0 0
3503 1 15.068775566146458 20.91554828028979 55.90732294699712 0 0 0
3507 1 19.17986087557204 20.453285144557622 55.75745098146641 0 0 0
3508 1 17.41614124718377 22.960908546954773 56.08538536497469 0 0 0
3758 1 14.956157595960702 22.708796624726318 57.853496569753 0 0 0
3759 1 15.107300862992386 20.80984664383414 59.71190407099822 0 0 0
3761 1 17.536623994054825 20.847075332631945 57.96500149821204 0 0 0
3763 1 19.188624224475063 20.790278523713134 59.89099671923474 0 0 0
3764 1 16.89106334032389 22.863585157523957 59.976365889828614 0 0 0
3791 1 15.148245653516083 24.795984658674193 59.91800697433357 0 0 0
3793 1 16.85760483606553 24.84633547226326 57.70217642594684 0 0 0
3795 1 18.864541995248448 24.901226649347684 60.196753756013095 0 0 0
3762 1 19.681652109544483 22.912644653614983 58.131638877672884 0 0 0
3516 1 25.532627121167206 22.681919304010215 55.44321778145588 0 0 0
3511 1 23.575626192311876 20.779067581356998 55.403861360174744 0 0 0
3543 1 22.97786068790873 24.67022699200142 55.5813983853688 0 0 0
3765 1 21.48917528962896 20.687857403935435 57.92775794312195 0 0 0
3766 1 22.87832579487903 22.69762121618397 57.39459703097846 0 0 0
3767 1 23.470570593835106 20.572129969479906 59.96588233384666 0 0 0
3768 1 21.336252823279775 22.93140221889521 59.91745023823688 0 0 0
3769 1 25.2708403667548 20.626967332648352 57.76604216134172 0 0 0
3772 1 25.287591447665857 22.774270494020104 59.607866785429884 0 0 0
3797 1 20.896741994511906 24.787970562545873 57.64442822840684 0 0 0
3799 1 22.713371835600398 24.847511820684417 59.435735675191474 0 0 0
3801 1 25.160410673661858 24.656310369530114 57.542369377472674 0 0 0
3520 1 29.633350798844518 22.752798973591428 55.52565011754582 0 0 0
3547 1 27.31554467951619 24.619518204402866 55.20170630262325 0 0 0
3515 1 27.44427359073662 20.343042657167626 56.02996726647562 0 0 0
3519 1 31.666472643163473 20.730449680949906 56.058181530375066 0 0 0
3551 1 31.407412675627672 25.02476326987507 55.47373808848908 0 0 0
3775 1 31.66223663079824 20.78581073658391 60.08667684565319 0 0 0
3771 1 27.45280895281733 20.97824513597507 59.700991045093055 0 0 0
3770 1 27.424314496250336 22.813685033852202 57.350361284546764 0 0 0
3773 1 29.427871911762654 20.564001094376202 57.744806239457226 0 0 0
3774 1 31.31885874268507 22.416174411171554 57.85469260955653 0 0 0
3776 1 29.269579752000656 22.61974758927998 59.73580651339895 0 0 0
3803 1 27.14828489395523 24.716811007901338 59.55792935635212 0 0 0
3805 1 29.708646274039026 24.72647638936673 58.04825147657114 0 0 0
3807 1 31.596342661418102 24.791102161170876 59.979447791239366 0 0 0
4061 1 29.811201025604763 24.41758224668451 62.2395439584667 0 0 0
3555 1 2.834743213172053 29.189713934235677 55.67812095136848 0 0 0
3528 1 4.677784487610939 27.03414871814001 55.70570142242453 0 0 0
3524 1 0.3425885934350468 27.362086161442477 55.570685706610995 0 0 0
3560 1 4.794173231036 30.832464416929074 55.54680586398265 0 0 0
3780 1 0.4581669785433179 26.842455368219664 59.717855221314366 0 0 0
3778 1 2.2998010545665872 27.16537407260675 57.67068788378236 0 0 0
3784 1 4.3339579844881255 27.2694022721362 59.79384751476617 0 0 0
3556 1 1.0143959864116845 31.07421615895441 55.895560666538735 0 0 0
3810 1 3.0456386618196163 30.98886536923207 57.91414802149008 0 0 0
3811 1 2.1583536203024423 28.90050200025231 59.420192943999595 0 0 0
3813 1 5.271285615298679 28.645593787981397 57.758122900856534 0 0 0
3816 1 4.425093385799009 30.560645116214488 60.31813715895281 0 0 0
3812 1 0.7299626368158101 30.96373829469776 59.96947657317758 0 0 0
3809 1 -0.01041224644059581 29.2975867681517 57.573472413208194 0 0 0
3782 1 6.789054062387175 26.464406078799016 57.60455077702132 0 0 0
3564 1 8.696256055558226 31.1932469846502 56.013883563296616 0 0 0
3559 1 6.94833193216092 28.8665486857596 55.684956547495574 0 0 0
3814 1 6.570256290771398 31.044478189134622 58.03435116400559 0 0 0
3563 1 10.705632774804771 28.59089224690289 55.52169469461284 0 0 0
3532 1 8.573024476767461 26.35772717683565 55.45318396111527 0 0 0
3786 1 11.119167555749117 26.749045645695187 57.26331919173249 0 0 0
3815 1 6.72160053805664 28.945191371116067 59.72207665239897 0 0 0
3788 1 8.925066506334367 26.609251426992568 59.65429939376812 0 0 0
3817 1 8.701381117629412 28.762092322413967 57.586023067716845 0 0 0
3818 1 10.9983045189442 30.691723749803742 57.954021591403304 0 0 0
3819 1 10.906064078685239 28.553096579234538 59.7077477606484 0 0 0
3820 1 8.930357323175755 30.851935613453207 59.71903982458519 0 0 0
3821 1 12.875453868556667 28.870467989982398 57.86013510607284 0 0 0
3824 1 13.135893651507931 31.262542105909443 59.93084052802258 0 0 0
3568 1 12.709827712555459 30.88180128197152 55.68543507117519 0 0 0
3536 1 12.96819316619262 26.99289637159263 55.34813520757202 0 0 0
3792 1 12.932603756266186 26.543349163279892 59.755258448815965 0 0 0
3571 1 18.73422980859467 28.717748431618844 55.89845860715115 0 0 0
3567 1 14.774111855680603 29.082451528100453 55.905245984447276 0 0 0
3572 1 16.905940314652486 30.968182071120673 55.70016461725027 0 0 0
3794 1 18.94197597940259 26.554883502963552 57.73397622403188 0 0 0
3540 1 16.559358032177016 26.669785033741878 55.86461925626445 0 0 0
3790 1 14.915374759089413 26.804909126227187 57.91569413774943 0 0 0
3796 1 17.141889146144024 26.9528947141023 59.81651730482494 0 0 0
3822 1 14.755948118954755 31.236870772639364 57.81647882047159 0 0 0
3823 1 15.177680085556764 28.901127431071544 60.140399326472576 0 0 0
3825 1 16.8499170894793 29.257204026502187 58.12549090565929 0 0 0
3827 1 18.855914741811457 28.973595933149614 59.44294799716478 0 0 0
3828 1 16.912524908729775 31.27467563474539 59.79172976196323 0 0 0
3826 1 19.232222716486188 31.056965850990544 57.49106599804949 0 0 0
4082 1 19.20009014317345 30.74314635208476 61.719013538939016 0 0 0
3607 1 23.298772653980624 32.847728949571945 59.929152539129774 0 -1 0
3609 1 25.114365287599366 -0.07584017329025604 57.952866491171775 0 0 0
3548 1 25.259909972401452 26.56979048846753 55.2215403359421 0 0 0
3544 1 20.912145623211806 26.77388380725278 55.80734065283922 0 0 0
3798 1 23.394080686069692 26.815750557934628 57.17747555302758 0 0 0
3575 1 23.189105622174385 28.65511694469086 55.407974884994665 0 0 0
3580 1 25.436109987902366 30.93922032487495 55.62493276476294 0 0 0
3804 1 25.115702106695487 26.674349075487978 59.499927204221585 0 0 0
3800 1 20.80855730741857 27.143771982551094 59.96416896387121 0 0 0
3576 1 21.295345416596867 31.133593153333216 55.770332541465905 0 0 0
3829 1 20.981804639349246 28.949142940425123 57.61046860950436 0 0 0
3830 1 23.473864283981932 30.75382210841308 57.55182767685413 0 0 0
3831 1 23.050341491482296 28.962657735891046 59.645956521348715 0 0 0
3832 1 21.20644749324039 31.038745752469254 59.54044247161256 0 0 0
3833 1 25.34901182411753 28.851462214663044 57.83296279610622 0 0 0
3836 1 25.270730741075173 30.716139205503545 59.63167537817631 0 0 0
3584 1 29.266373742336476 31.29255129648144 55.758443173826834 0 0 0
3611 1 27.26759151164315 -0.09948354273557308 60.20753186951348 0 0 0
3552 1 29.41592030526177 26.73510595185349 55.55852210145607 0 0 0
3802 1 27.076568666779803 26.470756734764045 57.13428668592572 0 0 0
3808 1 29.675346266041377 27.103115688734327 59.556447507961636 0 0 0
3579 1 27.187300403980064 28.878564646842488 55.30647310817793 0 0 0
3806 1 31.08011438792911 26.96779061750227 57.448330437247115 0 0 0
3834 1 27.263616405635013 30.375268546064543 57.810202276497236 0 0 0
3835 1 27.298297791262392 28.37050137413262 59.75851770561666 0 0 0
3837 1 29.322715891028906 29.100859669765235 57.28241417528601 0 0 0
3838 1 31.180479156518498 31.298738449151763 58.0020491050009 0 0 0
3839 1 31.566780071995623 29.07033989015043 59.69577591244076 0 0 0
3840 1 29.176087485646438 30.772839345920122 59.92966971107881 0 0 0
4058 1 27.703448786769247 26.29666290259473 61.579465047437346 0 0 0
4062 1 31.492028604773697 26.77676279195102 61.49132482543119 0 0 0
3874 1 2.4769834564842004 6.128730007755037 61.9338473605356 0 0 0
3842 1 2.7026770244079543 1.9642332919131622 62.00712626619067 0 0 0
3873 1 0.3915993459214521 4.079940441584072 61.93860676101645 0 0 0
3841 1 0.39457791154640387 -0.1567204014930347 61.64310765843508 0 0 0
3877 1 4.511221615575886 4.078650207085311 61.81663820675882 0 0 0
3848 1 4.72408598849047 2.034277193087739 64.16251631656766 0 0 0
3875 1 2.6443277143042283 3.9695624277329533 64.07075708065018 0 0 0
4098 1 2.1749945851921706 1.827774609417054 66.13847459267663 0 0 0
4133 1 4.492172892864139 3.9088659512638095 66.24666885556992 0 0 0
3844 1 0.29575553454236847 1.8800335769127539 63.55733372072896 0 0 0
4129 1 0.6069304276380376 3.7551641170292727 65.88731311696604 0 0 0
3843 1 2.5871169580045077 -0.029331963745984065 63.79614992171301 0 0 0
4097 1 0.26242341824346566 32.92896006967442 66.13278602409606 0 -1 0
3876 1 0.22567154698957037 6.186725399503361 64.064230897271 0 0 0
4131 1 2.549673087606269 4.1375231912759975 68.19070898473596 0 0 0
4100 1 0.35273856836136797 1.861564248421109 68.03477378040822 0 0 0
3847 1 6.504043251851441 32.72355247056453 64.05285093789047 0 -1 0
4130 1 2.464989541045979 6.492605885612021 65.88996633437739 0 0 0
4101 1 4.430731534142362 -0.08732817079983944 66.03713784916096 0 0 0
4104 1 4.533016001000343 2.0667618059730155 68.17175734044811 0 0 0
4132 1 0.43874063337849517 6.249525654698863 67.73423202249069 0 0 0
4102 1 6.710167071508299 1.9826334840909299 66.07584873455515 0 0 0
3882 1 10.870358465784468 6.086877055898062 61.97795767620371 0 0 0
3849 1 8.803221657107411 32.804229594161036 62.222926380036675 0 -1 0
3881 1 8.890714020317741 4.237309392492194 62.010717073674286 0 0 0
3850 1 10.457615999355045 2.044264018481274 62.02988127857359 0 0 0
3885 1 12.65678025520936 4.236364077814284 62.21845963366993 0 0 0
4134 1 6.398865050561568 5.946985886019435 65.90915929499518 0 0 0
3846 1 6.762295614997536 1.7838300262103046 61.85845359675596 0 0 0
3879 1 6.6092040164636865 4.078683533354571 63.9308331923267 0 0 0
3852 1 8.710076358837888 1.65624824125186 64.06775093964981 0 0 0
3883 1 10.790297330018877 3.7478931987447774 64.01654899144613 0 0 0
4106 1 10.795450750267902 1.9607151974749848 65.94790041363754 0 0 0
4137 1 8.731080074685135 3.855211127030627 66.06096505135395 0 0 0
4109 1 12.958744061172903 -0.08639901074138642 65.50353816401412 0 0 0
3851 1 10.95611743735638 -0.011194411878651472 64.05936986199032 0 0 0
3853 1 12.53293337885492 0.08228446579294957 61.96005776961828 0 0 0
3856 1 12.774186069583271 2.2373772348671035 64.16355571807091 0 0 0
3884 1 9.167757988752596 6.313353661619877 64.17402554893941 0 0 0
4140 1 8.89885476448741 6.20468244804617 67.86256656359414 0 0 0
4141 1 12.839223953931386 4.130124513854903 66.06703430882479 0 0 0
4103 1 6.515739093584276 0.0218744617931582 67.93363697812853 0 0 0
4105 1 8.650524503325281 32.92121703305861 66.28117329484887 0 -1 0
3857 1 17.386342556582882 32.991850207030765 62.02055169321434 0 -1 0
3889 1 16.707491277140043 3.7644009709619723 61.964432340041 0 0 0
3854 1 14.908542300289229 2.1814833827608777 62.39914131525737 0 0 0
3860 1 17.147157294214143 1.8695966055776136 64.01033133930527 0 0 0
3887 1 14.765864925273231 4.245392027635927 64.06788383886793 0 0 0
3891 1 18.678447288707698 4.297228149844044 63.90277546036007 0 0 0
3892 1 16.95813597855269 6.227074838995925 64.39194861951032 0 0 0
4110 1 14.70539202520226 2.0086989736175918 65.90363973275686 0 0 0
4145 1 16.71269125324489 4.114384447037686 66.35608479340628 0 0 0
4114 1 18.891695572279318 1.9576948848537528 66.11183930970921 0 0 0
3858 1 19.171890658892387 1.8041355516814457 61.90683695674361 0 0 0
4146 1 18.96289619576591 6.165763251452021 66.31418883284215 0 0 0
4113 1 17.03335099704974 -0.019065552107287075 65.9525044977806 0 0 0
3855 1 15.153304045051115 -0.11742406058966068 63.78854064024641 0 0 0
4142 1 14.694603922858182 5.761806577370648 66.1856543304714 0 0 0
4148 1 16.83566410481006 6.242931607835545 68.1208297181683 0 0 0
4147 1 18.583698374504497 4.084075899218786 68.35002458962119 0 0 0
4143 1 14.827171388361009 4.573186200161715 68.58583154278448 0 0 0
3893 1 21.09014477897666 4.244829841626736 61.899420163123565 0 0 0
3862 1 23.28539510085615 1.6614762719676783 62.38637153978167 0 0 0
3897 1 24.933067756485325 4.221524004594033 62.25825616641291 0 0 0
3864 1 20.90683899798185 2.0769780666941076 63.929588108922744 0 0 0
3868 1 25.503399623446764 1.9092172376870407 64.38950905193231 0 0 0
3895 1 23.02719458995092 4.144180756635639 63.867997806747496 0 0 0
4118 1 23.026439688132278 1.989555653465241 65.55090355299606 0 0 0
4149 1 20.710850426340592 4.225737024997716 66.10103312953959 0 0 0
4150 1 23.396071866702425 6.137589088527146 65.9373434298569 0 0 0
4153 1 25.31158551499946 3.793771769111438 66.23663507489334 0 0 0
4117 1 21.395143076719158 0.11149656659587692 66.00692215048697 0 0 0
3900 1 25.141822530278436 5.912577561631101 64.25474560655378 0 0 0
3896 1 21.1999673367132 5.977108620666842 64.0459443125227 0 0 0
3894 1 22.93664347860533 6.2791867575882305 61.856675693848445 0 0 0
4121 1 25.347440120696817 32.90453215364632 65.87462129876336 0 -1 0
3870 1 31.64661642696766 2.094852343364173 61.56265458113089 0 0 0
3901 1 29.859616911065554 4.254159822823068 61.93768183819068 0 0 0
3866 1 27.316000488143676 2.316581347028728 62.075414864756915 0 0 0
3872 1 29.4676531980029 1.822248173300838 63.83565122153959 0 0 0
3899 1 27.44037671699855 4.087779030019231 63.862149584799866 0 0 0
3903 1 31.64838234401109 4.02768175552827 63.900252328297 0 0 0
4122 1 27.653447996072103 1.8565789206977399 65.97678927297834 0 0 0
4126 1 31.57101496612342 1.6387271681907722 65.74624409911154 0 0 0
4157 1 29.800106219828116 4.1079896866509955 66.15545384548415 0 0 0
3904 1 29.553576927647217 6.376607032893994 63.76792750405957 0 0 0
4158 1 31.44028028131388 6.465714595844315 66.12949394689643 0 0 0
4125 1 29.703379548533977 32.88480035542266 66.0544024904918 0 -1 0
4154 1 27.311063233309167 5.949742240850944 66.22039696820157 0 0 0
3869 1 29.57604395778209 32.80703142492739 61.71469776756157 0 -1 0
3871 1 31.565875291992455 0.05143233703229375 63.515301221022455 0 0 0
3880 1 4.717665096400618 6.043876801329192 64.01111801774277 0 0 0
3906 1 2.4863978174889874 10.151397567237085 61.67098541384191 0 0 0
3941 1 4.684883655316166 12.45606214644726 61.7784828917379 0 0 0
3909 1 4.609673040117141 8.061740874064448 61.80183138218096 0 0 0
3907 1 2.462788263999817 8.237453601749335 63.79575341988297 0 0 0
3912 1 4.376109441981215 10.151488622224047 63.92511243109026 0 0 0
3939 1 2.3308702032921884 12.005745977791927 63.99981398053439 0 0 0
4162 1 2.1206731325083568 9.912823690945041 65.82076735241274 0 0 0
4165 1 4.7823539263745785 8.20292960538284 65.86413097132531 0 0 0
4197 1 4.519122476742715 12.43290201239562 66.20578879024141 0 0 0
4193 1 0.1892991633349271 12.129164683385126 65.92600300778314 0 0 0
4161 1 -0.04641211470027563 8.362117454096277 66.04534639199024 0 0 0
3908 1 0.2775235920934015 10.267485276335602 63.68509105286242 0 0 0
4164 1 0.060462629373338156 10.470528613601784 68.03643450138208 0 0 0
3878 1 6.649566723412083 5.928196366408788 62.00802248961973 0 0 0
4138 1 10.84766926905767 6.099030985267558 66.37018341581397 0 0 0
3888 1 12.861909760060094 6.0288855383611395 64.11737378758204 0 0 0
3911 1 6.830110985005765 8.12381814489642 63.88370629986338 0 0 0
3943 1 6.253125158165361 11.910708292956917 64.27881367398949 0 0 0
3910 1 6.638476795957953 10.039808035936266 61.69454463129679 0 0 0
3913 1 9.082222855441513 7.823282265134117 61.91039684878651 0 0 0
3945 1 8.846537005710003 12.410471652526711 62.29041455285891 0 0 0
3949 1 12.91997697299871 12.298938734284688 62.10906289978696 0 0 0
3914 1 10.855593950009144 10.268936636141786 61.93650659434751 0 0 0
4166 1 6.578797338722981 10.224168144212333 66.22766941728125 0 0 0
3915 1 11.142928579295212 8.089810944972673 63.91619995388459 0 0 0
3916 1 8.664303300806404 9.922831687873579 63.715521063946404 0 0 0
3947 1 11.137070780295716 12.865512457103735 64.05191106114756 0 0 0
4169 1 8.876031408916685 8.315323298313658 66.00487015758735 0 0 0
4170 1 10.80475035242298 10.551725293039363 65.9218019080727 0 0 0
4201 1 8.729945753480234 12.341034950011696 65.63190890438814 0 0 0
3920 1 12.859801408034235 9.86118148589349 63.809220804855954 0 0 0
4205 1 13.060926713453007 12.45111886893108 66.19367840638719 0 0 0
4176 1 12.796780220864468 10.635022300349249 68.07968029298488 0 0 0
4144 1 12.835357437632325 6.574330772514356 68.73290280443703 0 0 0
3886 1 15.394032148499193 6.184901725450765 61.9339255510526 0 0 0
4173 1 12.794225669342435 8.117697687284437 66.06876754995685 0 0 0
3921 1 17.08427091597044 8.17594287936267 62.05489541396696 0 0 0
3918 1 15.057362238727428 10.566159544938525 61.80188897813127 0 0 0
3919 1 14.690396582487741 7.990032296408181 63.88535245651657 0 0 0
3924 1 17.007702544215498 10.536412117407611 63.94503122427658 0 0 0
3951 1 14.57852093755054 12.405936861062923 64.38710099513088 0 0 0
3955 1 19.479612231896166 12.566873627692196 64.03633138633845 0 0 0
4174 1 15.308884222501039 10.36168219697973 65.82442109172572 0 0 0
4177 1 17.225615316408987 8.3179220252593 66.06970026659731 0 0 0
4178 1 19.29929286580938 10.413377879787474 66.04523245031231 0 0 0
4209 1 17.19451126059907 12.411165791180608 66.0554588130801 0 0 0
3923 1 19.01650314176084 7.922242658032413 63.97279283929466 0 0 0
4179 1 19.136733057605102 8.248095135616078 68.28572532326987 0 0 0
4180 1 17.284336016337022 10.559993553501839 68.40841986027276 0 0 0
4207 1 14.989043652936283 12.271984533315823 68.06013361724314 0 0 0
3957 1 21.640874564011927 12.452940850913654 61.66100583644206 0 0 0
3925 1 21.26896267821936 8.485559552734891 62.11526031549415 0 0 0
3961 1 25.292641194196925 12.779740433337691 62.20854968267148 0 0 0
3927 1 23.75739487526587 8.34608344177954 64.12252166051417 0 0 0
3928 1 20.950421517242017 10.356494756747933 64.02034889939979 0 0 0
3932 1 25.28434794563525 10.667185779510506 63.72227455209966 0 0 0
4181 1 21.183017074752975 8.031710626508312 66.0346178015892 0 0 0
4182 1 23.3361510133923 10.402097037574919 66.06281739263581 0 0 0
4185 1 25.45252826091801 8.095967867190353 66.1758679590776 0 0 0
4213 1 21.5220268976588 12.355952360320636 66.4605816550978 0 0 0
4217 1 25.345356027180113 12.632393638353149 65.89358416606443 0 0 0
3959 1 22.882790173286715 12.252285923224761 63.96319669780738 0 0 0
4156 1 25.449200030225562 6.245809172757994 68.05291697498103 0 0 0
4188 1 25.208017195331383 10.71548850741109 67.8115174881111 0 0 0
4184 1 21.0164503807432 10.126429133545178 68.21646610828196 0 0 0
3965 1 29.349376034079445 12.611455722391748 61.8582124915608 0 0 0
3933 1 29.458170802630715 8.112775511116046 61.59538305516999 0 0 0
3931 1 27.029784559729478 8.26497967529593 63.824671313454424 0 0 0
3935 1 31.563603857802093 8.481003398663768 63.69454596194113 0 0 0
3936 1 29.30555632126978 10.32584102123543 63.91382777719427 0 0 0
3963 1 27.188702075169843 12.51867775426241 63.70896412294235 0 0 0
3967 1 31.456533643078092 12.198044206727774 63.88415285886502 0 0 0
4186 1 27.20730930261644 10.563153912614641 66.10228147089177 0 0 0
4189 1 29.10224841167549 8.200697519045463 65.95678821233099 0 0 0
4190 1 31.35957761479681 10.423663776469642 65.6602584957318 0 0 0
4221 1 29.33384913173177 12.6700774821974 65.8835792292861 0 0 0
4223 1 31.441137964543678 12.660329077023569 68.1304019969626 0 0 0
4192 1 29.146026597355984 10.735145539662144 67.97981619242276 0 0 0
4191 1 31.000085349344868 8.860411680575698 68.13429361494181 0 0 0
3973 1 4.731220476203857 16.832511822401457 61.99849262093374 0 0 0
3938 1 2.5464968595918664 14.423757823188486 62.45195953179237 0 0 0
3944 1 4.342181933237269 14.2292495752148 64.1016768901913 0 0 0
3971 1 3.034139280935811 16.72635062673446 63.86856746439899 0 0 0
3976 1 4.364034844738911 19.314814895072722 64.07832271646312 0 0 0
4194 1 2.711468060085468 14.428545775253724 66.20983622253274 0 0 0
4226 1 2.702541490141912 19.128628770442244 66.41531092163264 0 0 0
4229 1 4.628709469209088 16.932547450283664 65.99935617272912 0 0 0
3972 1 0.8759413067894538 18.43455330167247 64.55753504798376 0 0 0
3940 1 0.4671028944864543 14.103948042704147 63.95585614746668 0 0 0
4225 1 1.0031868373193742 16.389179606096878 65.95544724999742 0 0 0
4196 1 0.29416077374334165 14.470793787668795 67.98207491021438 0 0 0
4232 1 4.731061110011893 18.781514364276 68.29702271029517 0 0 0
4200 1 4.912863237370909 14.494207038176093 68.14980623368368 0 0 0
3975 1 6.5498402893870695 16.54398385841469 64.26067347691732 0 0 0
4231 1 6.478011792921136 16.52658399918844 67.78416087808479 0 0 0
3946 1 11.157636804176757 14.425052312201515 61.95034857566743 0 0 0
3977 1 8.886889893761062 16.732147302307485 61.98079489952026 0 0 0
4230 1 6.527240614490671 18.612357027821602 66.00901751861805 0 0 0
3978 1 10.920063454511622 18.549236511831644 61.93986313267318 0 0 0
4198 1 6.3896707812371005 14.475205571209269 66.09727724206563 0 0 0
3948 1 8.89913053753223 14.562521025564472 64.38677022124345 0 0 0
3979 1 10.627502274817951 16.614574525489324 64.16402371845592 0 0 0
3980 1 8.606383638352597 18.648747741807494 64.14627691397274 0 0 0
4202 1 10.863280495086098 14.769261409506466 66.18141425542443 0 0 0
4233 1 8.808543667429763 16.354796726849436 66.5630577211877 0 0 0
4234 1 10.577728122958671 18.84352711814732 65.63004325920856 0 0 0
3952 1 13.279290783120704 14.410028145064185 64.31225244561813 0 0 0
4237 1 13.11538848426157 16.65294377323012 66.235877740665 0 0 0
3984 1 13.108173255769461 18.825706342768406 63.94661330318989 0 0 0
4208 1 13.035450619427541 14.36274640409111 68.14992761829389 0 0 0
3954 1 19.013262328031168 14.586929074962244 62.11147081821009 0 0 0
3985 1 16.824669705729026 16.316582623183464 62.361361112031275 0 0 0
3982 1 14.987555825417903 18.511494008509143 61.85942165592802 0 0 0
3956 1 17.101303741643886 14.458067961225835 64.17664178156096 0 0 0
3983 1 14.902252734333805 16.244558581580332 64.25730285248372 0 0 0
3987 1 19.21897479322832 16.52019938756809 64.31578489275627 0 0 0
3988 1 17.06057679230264 18.6479797455525 64.0435099345139 0 0 0
4206 1 15.028638468726156 14.589549011661655 66.61210500346014 0 0 0
4238 1 15.129140871046953 18.487790823811974 66.08809832170215 0 0 0
4241 1 17.08707176220978 16.35411354654447 66.22024972079456 0 0 0
4210 1 19.167208294097613 14.508813058300603 66.2171394215028 0 0 0
4242 1 18.89259497177075 18.67785278236334 66.13042872431693 0 0 0
4239 1 14.969651124614657 16.726611044255453 68.21489382665595 0 0 0
4243 1 18.842730993511896 16.356760758575 68.53637466649951 0 0 0
4212 1 17.12115888798285 14.038386828510273 67.88109042675922 0 0 0
3990 1 23.51260201172321 18.848090217091524 62.00559026673224 0 0 0
3993 1 25.42320685987133 16.698203861242902 61.91212569061048 0 0 0
3958 1 23.136795823698286 14.994871410549798 62.237847114463264 0 0 0
3960 1 21.352003578901236 14.61727776184989 64.1064028559448 0 0 0
3964 1 24.9804936463431 14.869784078437709 64.32939672635291 0 0 0
3991 1 23.31911867600666 17.16652273554285 64.16559126235568 0 0 0
3992 1 21.364261497691228 19.11407572076343 63.75958128171666 0 0 0
3996 1 25.3390560519464 18.833585100472753 64.5441384708397 0 0 0
4214 1 22.84365192135503 14.558530419345436 66.28143466911509 0 0 0
4245 1 21.208461138138222 16.462420970580947 66.60331124288847 0 0 0
4246 1 23.2221119054011 18.579946603699025 66.16445091080824 0 0 0
4249 1 25.10241233457126 16.327030165123187 66.2385261193421 0 0 0
4247 1 23.592043908391513 16.72330848113403 68.51918548333843 0 0 0
3998 1 31.746342428789266 18.632550090494885 62.04567427069562 0 0 0
3994 1 27.296309920239473 18.70243848510153 62.080168298057465 0 0 0
3962 1 27.410648342041565 15.002745112410777 62.32093096113432 0 0 0
3968 1 29.551379173532943 14.587805359955944 64.00885246588905 0 0 0
3995 1 27.222145751201865 16.792049613778048 64.47066228294426 0 0 0
3999 1 31.634168778974907 16.81588402528927 63.73106702000799 0 0 0
4000 1 29.40557577514028 18.667866446781815 64.16388483803178 0 0 0
4218 1 27.53138764080811 14.675814453773265 65.74981482036002 0 0 0
4222 1 31.51629591842403 14.577191529626226 65.92183820753547 0 0 0
4250 1 27.55552716802149 18.80328989854381 66.21621716646102 0 0 0
4253 1 29.62321559746578 16.666745971968624 66.16750560061917 0 0 0
4254 1 31.404946955518753 18.669953258679904 66.15089000770985 0 0 0
4224 1 29.39661165367302 14.748863682671594 67.85644718233715 0 0 0
4251 1 27.340006653477854 16.76673286836612 67.97585753015207 0 0 0
4037 1 5.025590315630638 25.259381522365505 61.44438608654564 0 0 0
4006 1 6.358117067654319 22.85764221600275 61.52085619473268 0 0 0
4001 1 0.45786941591936403 20.804635055235 61.83798389295644 0 0 0
4002 1 2.313863322142237 22.9577908324947 61.66182995162528 0 0 0
4003 1 1.757539143380183 20.534655440494795 63.922521961715226 0 0 0
4008 1 4.437282974778799 22.502836056987185 63.95048667331839 0 0 0
4035 1 2.4389963234736864 24.750338640798812 63.70189044525275 0 0 0
4258 1 2.3722053851013842 23.109744471962355 65.91572442812694 0 0 0
4261 1 4.345726281818423 21.090784459667162 66.48735526071513 0 0 0
4293 1 4.828466301944044 24.26455873531637 66.1680486466482 0 0 0
4289 1 0.27526783959025103 24.838086104496696 65.75909416893933 0 0 0
4257 1 0.6289031766702335 20.780497771560533 66.32551036675271 0 0 0
4004 1 -0.0017160974131977562 22.72835347809557 63.7969889975819 0 0 0
4260 1 0.3700633281834846 23.035317944840074 68.0066660009486 0 0 0
4039 1 6.529750740427984 24.612131547606563 63.782183396158814 0 0 0
4259 1 1.9834257980651864 21.157321657435403 68.42301798443772 0 0 0
4291 1 2.7116146649805466 24.77535508978492 68.29952871812354 0 0 0
4013 1 12.952791283823519 20.535602859996946 61.767492234529186 0 0 0
4262 1 7.1115553198726325 22.82264287739285 65.77958987222956 0 0 0
4007 1 6.801391918702108 20.57673829357839 63.756025544946354 0 0 0
4010 1 10.933536574185231 22.44992158787683 61.722455181646744 0 0 0
4009 1 8.729572586086887 20.34696528779872 61.86171908813577 0 0 0
4041 1 8.780954749994104 24.489851117190202 61.97884413828695 0 0 0
4011 1 10.831606376929507 21.009362310526583 63.9903638139752 0 0 0
4012 1 8.481666894782576 22.49338976775537 63.514074671434365 0 0 0
4043 1 10.984340509603078 24.74476245031053 63.9731304954205 0 0 0
4265 1 8.646031506544311 20.778876896006082 66.23706908843296 0 0 0
4266 1 10.306877443481687 22.92371528419111 65.93321854896969 0 0 0
4297 1 8.660499442255531 25.108296525159673 66.32460819626588 0 0 0
4301 1 13.132169100397027 24.79452756366352 65.89470602744164 0 0 0
4045 1 12.797912939052544 24.646398923067427 62.257491160842235 0 0 0
4016 1 12.961033879894183 22.99700826345981 64.04108458888543 0 0 0
4269 1 12.85199042440462 20.469050679231668 66.35602946214865 0 0 0
4014 1 14.947073867530921 22.465854510277442 61.91998390725 0 0 0
4272 1 12.801076410872444 22.859404081457146 68.06621230537422 0 0 0
4049 1 16.850833333099658 24.76461746724814 62.23959797352718 0 0 0
4018 1 18.956144455923866 22.79986615829297 61.7004007424331 0 0 0
4017 1 17.033143546043988 20.747412276238535 61.70162004576671 0 0 0
4015 1 15.221513857420737 20.718964793944735 64.26184694494042 0 0 0
4019 1 19.36089120923602 20.882964736454632 63.80334388270994 0 0 0
4020 1 16.99261550536891 22.748690884182444 64.1829330254056 0 0 0
4047 1 14.98005444640633 24.64909531157351 64.00917197670749 0 0 0
4270 1 14.925124065902754 22.513800752078005 66.18147061237752 0 0 0
4273 1 16.979556768403945 20.79455804805721 66.26878211171811 0 0 0
4274 1 19.1727766675796 22.656737065300696 66.32753058515921 0 0 0
4305 1 17.32463918030375 24.71138381392724 66.12965565610469 0 0 0
4051 1 19.28099668659443 24.84714987724405 64.08530819136291 0 0 0
4303 1 15.083834057633954 24.611518067552762 68.10641563859377 0 0 0
4275 1 18.958610812461934 20.388751318010673 68.4222488577859 0 0 0
4271 1 14.790589402423304 20.520910522257328 68.3924234466921 0 0 0
4057 1 25.12122558778673 24.914040162601033 61.71040676263923 0 0 0
4053 1 21.157712690696968 24.613789105490554 61.939962211479205 0 0 0
4022 1 23.57099654309802 22.49121162785573 62.16994816074139 0 0 0
4021 1 21.32026056424674 20.890057705630472 61.706645763440676 0 0 0
4025 1 25.677363838123824 20.947332680440365 62.15164952582015 0 0 0
4023 1 23.537723945739874 20.737588159821296 64.17547261664825 0 0 0
4024 1 21.257482107662366 23.100039569890683 63.923327645575135 0 0 0
4028 1 25.14923667524996 22.761036641887085 64.29040215909683 0 0 0
4055 1 23.207920626294005 24.95323926729562 64.05070711020052 0 0 0
4277 1 21.019804434066288 20.463315744768124 66.36165800355835 0 0 0
4278 1 22.802766503171597 22.69970663360627 66.44726522563253 0 0 0
4281 1 25.008705610760824 20.877267732792724 66.4700399827598 0 0 0
4309 1 21.30897195478906 24.96122427498374 66.51748864372667 0 0 0
4313 1 25.138086485492877 24.69138684010144 66.47606879787564 0 0 0
4280 1 20.958983055741854 22.80829378214499 68.49138148542082 0 0 0
4279 1 23.42359216200547 20.484062127063186 68.43210054922437 0 0 0
4026 1 27.203319099246446 23.124239279840744 61.80215210258646 0 0 0
4030 1 31.389614368938922 22.097746373587153 62.26880972676056 0 0 0
4029 1 29.05821992565591 20.950860819572597 62.12881075352203 0 0 0
4059 1 27.398638832547 24.53672375130863 63.96484686116125 0 0 0
4027 1 27.32558175410541 20.853281444248296 64.43148212221298 0 0 0
4031 1 31.670463839235246 20.19974022276219 64.27157768925785 0 0 0
4032 1 29.567786529260864 22.526101474415718 64.23086249599562 0 0 0
4063 1 31.50578628041784 25.11975355270589 64.15645317438856 0 0 0
4282 1 27.428507537202325 23.3376338577933 66.25078964215254 0 0 0
4285 1 29.524414639417188 20.969528420357467 66.4060067980793 0 0 0
4286 1 31.858586581347005 22.56749381172635 65.86770985719663 0 0 0
4317 1 29.856415431228896 24.929521385329526 66.4187905339755 0 0 0
4319 1 31.633873070703842 25.039394995370873 68.26381656826644 0 0 0
4287 1 31.71591116020873 20.594199522200007 68.21888879518536 0 0 0
4034 1 2.7426913643284783 26.813868172116155 61.77083614357839 0 0 0
4069 1 4.571661780793933 28.53602943224764 62.113980917182126 0 0 0
3845 1 4.678723643224727 33.00858846812043 61.67304328143126 0 -1 0
4066 1 2.272294636988073 31.102456870606506 62.13355334884187 0 0 0
4065 1 0.2965173977481812 28.760171801169253 61.714236253043964 0 0 0
4290 1 2.734652263371627 26.664888534471462 66.05098840461903 0 0 0
4036 1 0.555227960377163 27.057952463168593 63.65880610284086 0 0 0
4040 1 4.877230128556245 26.83387873136864 64.19435926196715 0 0 0
4067 1 2.558510613462027 28.879879456351595 64.10422937735032 0 0 0
4072 1 4.588013076101623 30.907541077236083 64.01659422864785 0 0 0
4322 1 2.486873503140434 31.22896191957182 65.81980307608475 0 0 0
4325 1 4.690391079711649 29.201150777122052 66.0196291756945 0 0 0
4068 1 0.21874922965243007 31.2570880689079 63.81609228618732 0 0 0
4321 1 0.5318342161174691 28.698053877873463 65.93048214890709 0 0 0
4038 1 6.84653884222139 27.028040492462953 61.58483642297391 0 0 0
4071 1 6.878228143170841 29.04169489466849 64.0503558306758 0 0 0
4292 1 0.6209331396016491 26.85652793499802 68.24036692109706 0 0 0
4324 1 0.5178106020059379 30.79003557403508 68.11179843816522 0 0 0
4077 1 12.742489299485776 28.730560420022574 61.59144411908549 0 0 0
4326 1 6.679500208771776 31.220603115780584 66.36505953767289 0 0 0
4070 1 7.027273714164799 30.757944589917077 62.15633109395607 0 0 0
4073 1 8.852843411351225 28.977603137089986 61.85033124699013 0 0 0
4042 1 10.924546591222487 26.494935652877103 61.75870422878367 0 0 0
4074 1 10.770280751736617 31.110702569963646 61.92580848391786 0 0 0
4294 1 6.874397912299057 27.42841699143441 66.37855424348062 0 0 0
4298 1 10.927800208163621 26.99749940168217 65.88251010787567 0 0 0
4044 1 8.60208816882562 26.770266700684598 63.83497607270755 0 0 0
4075 1 10.942095333828462 28.873653621454 63.397633118619396 0 0 0
4076 1 9.124598414775365 31.066790205888108 64.23194446733787 0 0 0
4329 1 9.29695277978765 28.91738072830178 65.65909544174505 0 0 0
4330 1 10.990496330879894 30.846275496678647 65.83644356322588 0 0 0
4080 1 12.848714079025974 30.992518874143602 63.700222468465896 0 0 0
4048 1 12.996410052875449 27.01185988946182 63.84347076543817 0 0 0
4336 1 13.329206183038373 30.89496432833397 67.7385569950778 0 0 0
4046 1 15.035464124597585 26.63737129846159 62.12623620927013 0 0 0
3859 1 19.299842922107707 32.78239551650624 63.99402055203677 0 -1 0
4115 1 19.318883371218277 32.94639913400374 67.91712875435341 0 -1 0
4050 1 19.104247542073065 26.73488937258552 62.0001053723856 0 0 0
4333 1 12.741628306356166 29.0518566562231 65.7360513153878 0 0 0
4302 1 14.723857699117184 26.672378556804958 66.2613751706669 0 0 0
4078 1 15.116910327442108 30.93013286018589 61.816922018577124 0 0 0
4081 1 17.253032482687622 28.89215697037506 61.972145195613976 0 0 0
4052 1 17.021876504095705 26.8407182942808 63.97865246687848 0 0 0
4306 1 18.895585984830145 26.887364791251855 65.693982222761 0 0 0
4079 1 14.956087702420472 28.994891445683002 64.00193960215249 0 0 0
4084 1 17.097027200780477 30.78934521828556 63.95221050855615 0 0 0
4334 1 15.35194388776091 30.94950576275934 66.05319421318802 0 0 0
4337 1 16.967837528057057 29.033500723062357 65.98795581975484 0 0 0
4083 1 19.612641189145638 29.402857421517275 64.10442418079367 0 0 0
4340 1 16.910561163242186 31.272350654272383 68.23373990901399 0 0 0
4338 1 18.77511164144798 31.133159215787394 66.0911546549343 0 0 0
4308 1 17.07544993829139 27.060779661354438 67.96733149315571 0 0 0
4339 1 19.243820524058982 28.735695056498034 68.03633366952663 0 0 0
3861 1 21.213161994917893 32.827418032292556 62.06333248439862 0 -1 0
3865 1 25.80258578054537 -0.12462825367844932 61.841187043830566 0 0 0
3863 1 23.90844853448995 32.56075473094117 63.51833409786005 0 -1 0
4089 1 25.367581302728073 28.553260127735832 61.98732619495088 0 0 0
4086 1 23.434107364578956 30.770394312330225 61.39323391430368 0 0 0
4085 1 21.188597150937227 29.098716184305292 61.99109276309182 0 0 0
4060 1 25.389976096746427 26.554160043330352 63.904110926440914 0 0 0
4054 1 22.92172512313097 26.60341849688578 61.65218094159969 0 0 0
4310 1 23.19457679191766 26.601801400260207 66.16072992517049 0 0 0
4056 1 21.309580049432572 26.8853571959881 64.07277005183015 0 0 0
4087 1 23.503897627246705 28.821533715383044 63.75714497520227 0 0 0
4088 1 21.719927071929305 31.063039798480773 64.07905499461239 0 0 0
4092 1 25.375680517028442 30.54966101950061 64.34818293892924 0 0 0
4341 1 21.103198413118786 28.757717293955647 66.31844268232987 0 0 0
4342 1 23.34564218628528 31.058877224761165 66.12249442701433 0 0 0
4345 1 25.287781810034463 28.802696247297927 66.26371585110472 0 0 0
4344 1 21.078951039884235 30.88030414834113 67.87576007954294 0 0 0
4316 1 25.34199273534606 27.315498692749422 68.53814406143871 0 0 0
4348 1 25.23577938130172 31.15674034775606 68.23472271036901 0 0 0
4343 1 22.99394872040334 29.13996105383593 68.3782653988846 0 0 0
4094 1 31.657905730001 30.859342688883533 61.536763590995506 0 0 0
4090 1 27.128023376283128 30.623102278930833 62.25251858319798 0 0 0
3867 1 27.50217348575069 32.94036458099934 64.04263391602159 0 -1 0
4127 1 31.264494645971794 -0.058381007839315505 68.11694816290904 0 0 0
4093 1 29.590673310864798 28.739164418030757 61.682696118672936 0 0 0
4314 1 27.73349378647017 26.952916611727794 66.23678829751569 0 0 0
4318 1 31.70653688288813 27.140867779982617 66.36099894619952 0 0 0
4064 1 29.569848911337672 26.746467637159547 63.841936536095396 0 0 0
4091 1 27.71947818315424 28.245896347132923 63.88696431797792 0 0 0
4095 1 31.635238201568868 28.590757422960287 63.755632187041556 0 0 0
4096 1 29.65018383087539 30.63387030742912 64.09431938066957 0 0 0
4346 1 27.50472206054337 30.96737530555154 66.0546339685685 0 0 0
4349 1 29.64944102430471 28.644111681419837 66.11056139975682 0 0 0
4350 1 31.723947749530264 31.151448306159985 65.89623003339211 0 0 0
4347 1 27.703575263752363 29.026563047561638 68.25054953548646 0 0 0
4351 1 31.48732398570675 29.008634981170296 68.29252811509866 0 0 0
4136 1 4.317890738105244 6.559993402050175 68.34147288758165 0 0 0
4099 1 2.389491315337445 -0.062224505514779316 68.0741186179882 0 0 0
4354 1 2.687623324399883 2.028623435850707 70.13746334285072 0 0 0
4360 1 4.86971160037656 2.1782090221016985 72.4532315875476 0 0 0
4387 1 2.5430302413896078 4.018440011696074 72.71673644037254 0 0 0
4389 1 4.562450606597301 4.357194486502305 70.12759846349049 0 0 0
4385 1 0.9165826429496011 4.039740146914681 70.31216291517008 0 0 0
4356 1 0.4004925899450611 2.232310208406522 72.22711055032308 0 0 0
4388 1 0.5352632637277778 6.224270470954997 72.06196082441585 0 0 0
4353 1 0.35980046761535345 32.9568517256138 70.23203358002719 0 -1 0
4392 1 4.130225508029103 6.28697756154538 72.0339275094139 0 0 0
4357 1 4.579912761308734 0.22803477246100107 70.33537035807984 0 0 0
4391 1 6.327807477557805 4.237277430034758 72.00763677000009 0 0 0
4386 1 2.21514418120664 6.424214222074048 69.9954789685833 0 0 0
4642 1 2.4058356848677587 6.131760107812274 74.57642377247114 0 0 0
4645 1 4.8317706279160335 4.107561837493489 74.81781720139907 0 0 0
4610 1 2.6349364001011666 2.3777033929145373 74.71167825100932 0 0 0
4641 1 0.2986975991244579 3.8757982055261504 74.30556549214374 0 0 0
4614 1 6.90755305448106 1.9408130528522158 74.75756111226137 0 0 0
4108 1 8.875787553624534 2.07271652374564 68.11091997262169 0 0 0
4139 1 10.934619913077293 4.1344985912057535 68.32377884687659 0 0 0
4135 1 6.74087116243158 3.706762284308306 68.06542496501125 0 0 0
4358 1 6.653420071646211 2.0136708084926367 70.2113630694526 0 0 0
4112 1 12.835319657116683 1.9167011074227933 68.28809517166843 0 0 0
4390 1 6.756966259546694 5.937074212122257 70.04605430046193 0 0 0
4362 1 10.938636691958159 2.342719263290182 70.46155614253954 0 0 0
4364 1 8.667080705657128 2.4760007367349313 72.04174479572495 0 0 0
4393 1 8.708171878189281 4.291606199987824 70.26295836807968 0 0 0
4394 1 10.965845534665522 6.5512040934363975 70.36294879694046 0 0 0
4395 1 10.819147706692204 4.42307124192815 72.22203551921046 0 0 0
4368 1 12.850527634977086 1.9557278815429948 72.50695764267537 0 0 0
4359 1 6.875207629248986 0.4923440201329486 72.6543413310271 0 0 0
4400 1 12.78208007512087 6.693806141119515 72.46856639199787 0 0 0
4363 1 10.903413594585968 0.16954831151181632 72.13412439931825 0 0 0
4617 1 8.859290202450572 0.0012491911565980542 74.52658853335524 0 0 0
4396 1 8.757445241714379 6.175053842503759 72.22928325334844 0 0 0
4649 1 9.040976787819472 4.170327108907361 74.51523773518036 0 0 0
4397 1 13.218638107530376 4.214852910262538 70.64189640234353 0 0 0
4116 1 17.000951163035378 1.7075870390386505 68.41349800927127 0 0 0
4366 1 14.735638141033577 2.2016805683014966 70.26244189075791 0 0 0
4372 1 17.27311921031527 2.379487804869847 72.3593476606315 0 0 0
4398 1 15.184584891498401 6.454263133524366 70.43612403414575 0 0 0
4399 1 15.034848135644287 4.765115563517421 72.75894958014611 0 0 0
4401 1 16.818283872600535 4.174443462874103 70.32797305196289 0 0 0
4403 1 19.4325907320476 4.246423204127837 72.04323805308631 0 0 0
4370 1 18.974576980087484 1.7739013964914925 70.26338289725159 0 0 0
4402 1 19.107698665223776 6.070347256664657 70.071730348387 0 0 0
4371 1 19.200247468943697 0.1359743149568723 72.33218445948684 0 0 0
4404 1 17.25826037431183 6.641148350186568 72.66223003207845 0 0 0
4151 1 23.504674748846362 3.6757180928538666 67.98327780377964 0 0 0
4152 1 20.81958693730055 6.192623698446292 68.13413810610913 0 0 0
4120 1 21.191267364090045 2.0312497436784502 67.96545896364901 0 0 0
4124 1 25.549179730784278 1.7862888487747353 68.01139335840816 0 0 0
4119 1 23.495758762364794 0.3585335644003322 68.66051926827816 0 0 0
4374 1 23.515933557952994 2.1977781703258903 70.51146211495801 0 0 0
4376 1 20.90328373317365 2.2199973820193435 72.32448705492116 0 0 0
4380 1 25.60926845024194 1.9256664185704984 72.28568150633615 0 0 0
4405 1 20.922613848789037 3.937981620715058 69.89994001507323 0 0 0
4407 1 23.287507096338548 4.46942274025374 72.00935898668119 0 0 0
4409 1 25.699078494093644 4.129588751573626 69.83810887934762 0 0 0
4412 1 25.507410166513413 6.208324138906502 71.62721274276578 0 0 0
4662 1 23.532174049413804 6.126788639920617 74.2273095977416 0 0 0
4661 1 21.158079542286945 4.195104116244365 74.2140520492975 0 0 0
4406 1 23.195482768814447 6.204731186253485 69.76117141340644 0 0 0
4408 1 20.979897851541953 6.2476406091688075 72.09731062871337 0 0 0
4630 1 23.351407715921766 2.2587233326260683 74.10477204554708 0 0 0
4665 1 25.23556896383831 4.214619608571021 74.3849981898784 0 0 0
4159 1 31.53258252898514 3.9117365860763846 68.10051358633307 0 0 0
4123 1 27.708758709790914 0.049567240886423655 68.05550987031897 0 0 0
4155 1 27.793917529683412 3.826070381327761 68.10399070897978 0 0 0
4128 1 29.700812723577926 1.8479135803280808 68.00004677337284 0 0 0
4160 1 29.818110900632796 6.494387568744703 68.46767169909069 0 0 0
4410 1 27.453700927607308 6.518394073541592 69.72414126534382 0 0 0
4378 1 27.60329153284254 2.0592153220959775 70.31915570813807 0 0 0
4382 1 31.448416750018747 1.88174550644605 70.15840724100093 0 0 0
4384 1 29.459971757858778 1.937042957307865 72.40687432683049 0 0 0
4411 1 27.40519022104277 4.3247665039105785 72.37767423314196 0 0 0
4413 1 29.560584908519232 3.9469348591610656 70.26614043832771 0 0 0
4415 1 31.53095333202282 4.102483572236314 72.40800817940996 0 0 0
4416 1 29.721516949782348 6.527643161977325 71.97981152153326 0 0 0
4414 1 31.69129890076414 6.069563761430061 70.10844464059753 0 0 0
4383 1 31.618591665503082 0.3547898652991195 72.6430230556277 0 0 0
4381 1 29.690162215523692 -0.1772496161464288 70.406719972331 0 0 0
4634 1 27.745730544124896 2.1380629338147648 74.80709810480822 0 0 0
4638 1 31.437387863407093 2.075195388312667 74.75115894601194 0 0 0
4168 1 4.279511545049934 10.024287080360766 68.01462642866751 0 0 0
4195 1 2.3227183746461515 12.407478321930936 68.10345536989105 0 0 0
4163 1 2.351117246502245 8.541784848432213 68.31341627327465 0 0 0
4418 1 2.464306114222044 10.817047228662089 70.30832507365874 0 0 0
4419 1 2.3358871145247355 8.790752042037903 72.19346842900255 0 0 0
4421 1 4.294354484804349 8.523152867078736 70.25839961133305 0 0 0
4424 1 4.497469997795085 10.40789023988807 72.37059843414038 0 0 0
4451 1 2.303008058461768 12.40509320629091 72.46069140184807 0 0 0
4453 1 4.798321996908525 12.788926490945524 70.44963633814473 0 0 0
4417 1 0.24637019243953412 8.616749628406543 69.96788289283649 0 0 0
4449 1 0.4859122234041766 12.623639557007913 70.11979515920234 0 0 0
4420 1 0.09423279525507307 10.725627079051065 71.94702534263195 0 0 0
4673 1 0.7264421993972061 8.358447983967654 74.20778604511037 0 0 0
4705 1 0.5409624979653532 12.340293507038995 74.30571981426893 0 0 0
4677 1 4.350981160456755 8.395331700461103 74.23590590853556 0 0 0
4646 1 6.493006368236807 6.103662066867707 74.30647816258974 0 0 0
4203 1 10.97594852637426 12.342425724300854 68.19054770909493 0 0 0
4167 1 6.592390502766865 8.093532027396714 68.09858880419323 0 0 0
4171 1 10.882873825007625 8.374343309656105 68.14439115665465 0 0 0
4172 1 8.707687154085777 10.543688023090612 67.74559924746019 0 0 0
4199 1 6.72110943610221 12.275077318532258 68.18291386349146 0 0 0
4455 1 6.710225396692911 11.908056313556408 72.1217989338539 0 0 0
4423 1 6.240285293622644 7.980048509491182 72.19218607726374 0 0 0
4422 1 6.67544518049006 10.126539856484458 70.13811071709434 0 0 0
4425 1 8.781096654322013 8.373458320875933 69.88782828169296 0 0 0
4426 1 10.870318038895073 10.454495598128231 70.12764363451356 0 0 0
4427 1 10.641655317964213 8.57566119771577 72.46089081626032 0 0 0
4428 1 8.516114939203515 10.094830397175159 71.75069765626557 0 0 0
4457 1 8.756368429573113 12.494346690967603 69.73416386933805 0 0 0
4459 1 10.55148112385555 12.376474585968175 72.36567710920365 0 0 0
4432 1 12.672789849743756 10.72589741188299 72.79015121970252 0 0 0
4681 1 8.340390254829524 8.239103471943015 74.02348722205004 0 0 0
4429 1 13.115097569204279 8.892501471449094 70.45728677776366 0 0 0
4461 1 12.796463901908135 12.455700393151837 70.60318974187103 0 0 0
4175 1 14.827225493618464 8.333899803482755 67.79079635939527 0 0 0
4717 1 12.95011354786612 12.79728676537842 74.74260549358534 0 0 0
4211 1 19.066963152812985 12.321280290692975 68.23705141726316 0 0 0
4430 1 15.292808276458878 10.414792173729351 70.02248762773871 0 0 0
4431 1 14.89307495588428 8.445605546903863 72.6180135929162 0 0 0
4433 1 17.070111478759834 8.153814856025125 70.13485505863154 0 0 0
4434 1 19.060903561299924 10.306386938985696 70.38271670511601 0 0 0
4435 1 19.483344002473935 8.565216870046495 72.39681197251517 0 0 0
4436 1 17.195069053876765 10.178488388713419 72.31559248749 0 0 0
4463 1 14.683027401794739 12.370891760673729 72.48691430811189 0 0 0
4465 1 17.162589308185403 12.075580659109432 70.58456343674044 0 0 0
4467 1 19.267360052893277 12.175812919170198 72.47635899834418 0 0 0
4721 1 16.697713063350736 12.306057586882897 74.48228093186461 0 0 0
4685 1 12.937994752475383 8.283020472639265 74.6284454207655 0 0 0
4215 1 23.246753547585413 12.797811792430531 68.61077056023281 0 0 0
4183 1 23.365247160231178 8.168192913490861 68.02489746067852 0 0 0
4437 1 21.03226484711151 8.110754889460571 70.24199104298503 0 0 0
4438 1 23.18850015918283 10.219718770462881 69.84432228070699 0 0 0
4439 1 23.386506093830533 7.870789579918202 71.95876952774705 0 0 0
4440 1 21.382432975879997 10.401508214982506 72.12267068249011 0 0 0
4444 1 25.429880421994056 9.882003411120444 72.14977397924461 0 0 0
4469 1 20.837111076577457 12.660135925861297 70.35385282934861 0 0 0
4471 1 23.303542804380783 12.209215777106607 72.13877938121654 0 0 0
4473 1 25.338709208240857 12.369136936520041 70.34362927588002 0 0 0
4441 1 25.65751502110633 8.608836301690278 70.06089729051847 0 0 0
4729 1 25.464276802100272 12.50004809728384 74.31172352508202 0 0 0
4725 1 21.278864531949512 12.488823558299188 74.75185154210436 0 0 0
4694 1 23.181383774389346 10.60810174825449 74.42216191352473 0 0 0
4219 1 27.501575518975077 12.702590182655868 68.22243971728808 0 0 0
4187 1 27.5328415831551 8.606135853632573 68.08368184997374 0 0 0
4442 1 27.8274180109072 11.06637214939641 70.46172095996353 0 0 0
4443 1 27.70713458840696 7.977955469574074 72.2693444682619 0 0 0
4445 1 29.520573072046027 8.707338622817796 70.3737354622859 0 0 0
4446 1 31.15715372737049 10.858412421143582 70.03288252673991 0 0 0
4447 1 31.710918892549472 8.249474919637303 72.0919058303151 0 0 0
4448 1 29.816280943664307 10.158083453499469 72.42028541068946 0 0 0
4475 1 27.4487490952583 12.310613701843458 72.57510551650768 0 0 0
4477 1 29.341052587559524 13.32807600875973 70.19073975964119 0 0 0
4479 1 31.388283604837753 12.424656473995544 72.76548978991613 0 0 0
4702 1 31.65769996468539 9.986454794955463 74.71010574004748 0 0 0
4733 1 29.406407280481385 11.912082094075387 74.69328147632291 0 0 0
4227 1 2.72891948720148 16.736388925442068 68.43317980275872 0 0 0
4228 1 0.39365750250689097 18.284801613431675 67.85647790612595 0 0 0
4450 1 2.1361021890665515 14.447388960502991 70.47153540030848 0 0 0
4456 1 4.3343384549251125 14.629826886328543 72.16607546658003 0 0 0
4482 1 2.678875735857209 19.085751715390867 70.52268502440194 0 0 0
4483 1 2.1228636030008237 16.426083602647935 72.56139203412704 0 0 0
4485 1 4.349935249252683 16.341707813481722 70.50150804762445 0 0 0
4488 1 4.340396811157322 17.961027563662977 72.58532537273935 0 0 0
4481 1 0.36667935475867836 16.777864948362986 69.96818878680548 0 0 0
4452 1 0.37840704689906 14.404198635211966 72.47810630794109 0 0 0
4484 1 0.30503119586201444 18.671415761040578 72.30815200033899 0 0 0
4486 1 6.822311002787272 18.452786644124892 70.31828241953511 0 0 0
4706 1 2.6019463448622826 14.205167758520176 74.49728021348542 0 0 0
4741 1 4.518716653800446 16.33617914752964 74.41041261579085 0 0 0
4738 1 2.4087169384636513 18.719972689682848 74.43160534977542 0 0 0
4204 1 8.538017773784444 14.242301239844279 67.64839568208872 0 0 0
4240 1 12.69250698544982 18.31912791225852 68.19542568702136 0 0 0
4235 1 10.963346111120897 16.300940586763296 68.43983329849421 0 0 0
4236 1 8.531782711000318 18.685469561195035 67.87575367633683 0 0 0
4454 1 6.752701352204395 14.268847827899828 70.18875578173827 0 0 0
4487 1 6.726693486123112 16.380303949592815 72.43136387670114 0 0 0
4458 1 10.699733536094625 14.195654386430663 70.01141203007865 0 0 0
4460 1 8.68985854490834 14.215413382404304 72.33305844459134 0 0 0
4489 1 8.57524983880618 16.335033922268668 69.50615216249308 0 0 0
4490 1 10.625624868272379 18.674424337421847 70.15376858295063 0 0 0
4491 1 10.915281089176167 16.28804642703867 72.05688664493776 0 0 0
4492 1 8.909407851366806 18.23525673824001 72.26982539794145 0 0 0
4710 1 6.432356678472356 14.306127874165115 74.26205086692882 0 0 0
4464 1 12.820608370017933 14.403639836309674 72.35963146167443 0 0 0
4493 1 13.22415721388437 16.300810974876295 70.31405527436866 0 0 0
4714 1 10.870342080178554 14.470985223900179 74.29021545832315 0 0 0
4742 1 6.6001375093693095 18.453358053546815 74.20498465091863 0 0 0
4745 1 8.899844805889982 16.413486748064162 74.18139981207658 0 0 0
4749 1 12.736515228067608 16.389809302506656 74.70470786570682 0 0 0
4244 1 16.81669160419006 18.507781746168373 68.50721139715455 0 0 0
4496 1 12.878039901765924 18.499781643216437 72.23112590351082 0 0 0
4462 1 15.130922164211892 14.152047646205764 70.24270319811498 0 0 0
4468 1 17.295122090157648 14.143499627931007 72.44217753929902 0 0 0
4494 1 15.039512760233082 18.538659766085562 70.30508806775562 0 0 0
4495 1 14.98866013525777 16.730528708053047 72.50049634628718 0 0 0
4497 1 16.664324377643073 16.204567564468103 70.64118905341282 0 0 0
4499 1 19.24637321757297 16.424223551087028 72.3369240912517 0 0 0
4500 1 17.25974528620394 18.15558358231528 72.25161345467653 0 0 0
4754 1 18.918889572317333 18.5085255191128 74.32982290926482 0 0 0
4498 1 18.914758865684938 18.643741659234852 70.33329688842691 0 0 0
4466 1 18.99509018995237 14.378085189946987 70.21145681196147 0 0 0
4753 1 17.01048728007196 16.432799597175944 74.4845266562374 0 0 0
4722 1 18.934869917770996 14.529672737141036 75.00429095615452 0 0 0
4248 1 21.329791812364263 18.64289899874991 68.47386127284211 0 0 0
4252 1 25.445725249755267 18.678277856353414 68.23753507852987 0 0 0
4216 1 21.345668474665786 14.583221608097402 68.37882022216968 0 0 0
4220 1 25.263387228191963 14.502240826491834 68.13789425390797 0 0 0
4470 1 23.2760138855303 14.706389921455772 70.73380031372015 0 0 0
4472 1 21.46700098470548 14.272690503043922 72.59822828715467 0 0 0
4476 1 26.05920631910893 14.441475920763889 72.29656794815139 0 0 0
4501 1 21.1642383184213 16.613575054177765 70.68841235004561 0 0 0
4502 1 23.472439533472023 18.285117329088422 70.52489059364758 0 0 0
4503 1 23.369054498842768 16.621253430223536 72.60443556883767 0 0 0
4504 1 21.3383000537339 18.74252698574592 72.60349613435655 0 0 0
4505 1 25.608857740598328 16.453133593057796 70.59558027644839 0 0 0
4508 1 25.795290165972418 18.535965400408084 72.43459870789778 0 0 0
4757 1 21.11079215588721 16.230181397954638 74.67808494819485 0 0 0
4758 1 23.20743796848911 18.485175826251798 74.77306257449409 0 0 0
4256 1 29.465166840240006 18.651758461253976 68.26166963968818 0 0 0
4255 1 31.837753687562053 16.448667680775195 67.78741869679456 0 0 0
4506 1 27.704199144363155 18.487612620616787 70.4806360798668 0 0 0
4507 1 27.737146091828023 16.60017048660596 72.69586750332346 0 0 0
4474 1 27.514070117448828 15.007652331765971 69.56261136171685 0 0 0
4478 1 31.74757458557445 14.702373298070977 70.04546305785311 0 0 0
4480 1 29.361658614043638 14.441257092433188 72.4789392901077 0 0 0
4509 1 29.696207046352484 16.565180553084186 70.42979307740833 0 0 0
4510 1 31.354116960998933 18.522644679605886 70.2186316338237 0 0 0
4511 1 31.677822536474412 16.616208380571383 72.1649608805513 0 0 0
4512 1 29.747660517720153 18.730733096818444 72.46405653932541 0 0 0
4762 1 27.544420901696945 18.587448069422756 74.63277706873006 0 0 0
4765 1 29.541834899494784 16.437949475540407 74.81215416385557 0 0 0
4730 1 27.77561454417487 14.47429568372432 74.67477642103947 0 0 0
4734 1 31.53730019582781 14.460788158677971 74.42134905007138 0 0 0
4264 1 4.666300937066584 23.04598659901789 68.35657270073162 0 0 0
4515 1 2.5440642406383094 20.92000267263559 72.32559503073816 0 0 0
4514 1 2.4707231837062786 22.97392619755601 70.42514103512873 0 0 0
4517 1 4.787715382734595 20.74075884382875 70.35412846418903 0 0 0
4520 1 4.655597901675124 22.82365578223377 72.61324349228519 0 0 0
4547 1 2.720470582093399 25.02540181307223 72.57182889373185 0 0 0
4549 1 4.376936852868201 24.801086457235723 70.54827763189154 0 0 0
4513 1 0.4120879178816235 20.60454166256868 70.43276295527808 0 0 0
4545 1 0.5781981643521448 25.166083794219894 70.3827994631586 0 0 0
4516 1 0.38270311801567636 22.86895051448346 72.14948026222736 0 0 0
4773 1 4.454840724004487 20.521801687568477 74.3440023476619 0 0 0
4769 1 0.49706965026230004 20.76247281133126 74.61125702296388 0 0 0
4770 1 2.2821498727423073 22.651185146046473 74.452787096833 0 0 0
4546 1 2.464027204434728 26.946525292190902 70.28450751432379 0 0 0
4299 1 11.00451797655234 24.760477700199054 68.29922325894596 0 0 0
4268 1 8.818509819785634 22.916377317266456 68.25552792824577 0 0 0
4295 1 6.972540747055309 24.737439147788333 68.13971532077328 0 0 0
4263 1 6.746024368204767 20.793600031596835 68.11875136018412 0 0 0
4267 1 10.596913876640164 20.734350858579912 68.11165404870694 0 0 0
4519 1 6.801261539090571 20.293756807522293 72.37422219391641 0 0 0
4551 1 6.4812286757175235 25.061465512137 72.490286747121 0 0 0
4518 1 6.697778582963926 22.732139768885897 70.26662425268471 0 0 0
4521 1 8.834040250758829 20.82121120479286 70.4571810607739 0 0 0
4522 1 10.690003469888008 22.879232621815284 70.40095873045827 0 0 0
4523 1 10.741202251837736 20.527187480806408 72.55736113529858 0 0 0
4524 1 8.75169626106973 22.60730922914029 72.40871806739557 0 0 0
4553 1 8.957960798212591 25.066407504745285 70.20130543860635 0 0 0
4555 1 10.836003426930384 24.989031599308507 72.60130936764138 0 0 0
4557 1 12.98368480295739 24.982969942617167 70.47916868486885 0 0 0
4774 1 6.668418961843067 22.629262854937092 74.37997235389223 0 0 0
4777 1 8.679012307741727 20.415363943418356 74.33918530459384 0 0 0
4778 1 10.656347773326154 22.84711163901906 74.20528672049178 0 0 0
4307 1 19.312153732913 25.139192510245852 68.53066227320681 0 0 0
4528 1 12.739358015198489 22.597865809405075 72.4548278747796 0 0 0
4525 1 12.624884579761597 20.548835410897603 70.28497426662375 0 0 0
4276 1 17.13625066766264 22.647173849584608 68.56309585713485 0 0 0
4529 1 17.128624721037582 20.630278991630757 70.39261139219208 0 0 0
4526 1 14.714920151545524 22.45607093454069 70.17006314484432 0 0 0
4527 1 14.837095738828666 20.52892333049826 72.16843118323521 0 0 0
4530 1 19.03486555267572 22.74073820663016 70.30307816248612 0 0 0
4532 1 17.335344522282536 22.547340088864313 72.25822784775892 0 0 0
4559 1 14.846028049758761 24.89599086814171 72.45636242972357 0 0 0
4561 1 16.854297020791197 24.617930244638806 70.57463471406041 0 0 0
4563 1 19.45424845435035 24.6957726157545 72.48323181478762 0 0 0
4531 1 19.271252491754858 20.501861383415864 72.57149900904018 0 0 0
4786 1 19.411651491616443 22.57029093178695 74.47268345492515 0 0 0
4817 1 16.847766654135405 24.158977697234832 74.51436913923139 0 0 0
4311 1 23.6118068175266 24.782006827403606 68.62889537185258 0 0 0
4284 1 25.414936173871435 22.449712318722177 68.46861659481677 0 0 0
4533 1 21.078690875493766 20.37638830534105 70.06839547429557 0 0 0
4534 1 23.338673024546868 22.497034513078273 70.4638056390008 0 0 0
4535 1 23.59758321797265 20.387580669366955 72.63383907085482 0 0 0
4536 1 21.14069873845685 22.480547853493277 72.08126853815628 0 0 0
4537 1 25.319595478661462 20.660880221031935 70.48899337212119 0 0 0
4540 1 25.47509449554282 22.51650914179938 72.71290324642298 0 0 0
4565 1 21.395060836985508 24.623631784894652 70.41530520774207 0 0 0
4567 1 23.27103449823016 24.530377726473723 72.36860392121469 0 0 0
4569 1 25.43610852860443 24.872551026439194 70.70055438099828 0 0 0
4789 1 21.513245687461733 20.891742639192614 74.51134736596471 0 0 0
4790 1 23.649358492644517 22.33370753034622 74.95380888250767 0 0 0
4572 1 25.536552023115085 27.131462430933702 72.30947322887758 0 0 0
4821 1 21.515767907004673 24.415354348244943 74.81106314384841 0 0 0
4288 1 29.574137975948943 22.81248863032299 68.42795950390702 0 0 0
4283 1 27.529413357663707 20.85880973795809 68.29820303871078 0 0 0
4315 1 27.17479130991482 25.19205936201448 68.28710894798627 0 0 0
4538 1 27.451634855716737 22.995031829968852 70.33749159537875 0 0 0
4539 1 27.474013118649385 20.72424993744535 72.35646991864958 0 0 0
4541 1 29.345128149908625 20.840852279859405 70.19821266896336 0 0 0
4542 1 31.66842910894962 23.251880072749838 70.22826865925066 0 0 0
4543 1 31.581639785195573 20.738876039301314 72.37304750057878 0 0 0
4544 1 29.533737421010585 22.652119529300954 72.16652318328705 0 0 0
4571 1 27.57513124629574 25.188473381870082 72.6779116183763 0 0 0
4573 1 29.444864459976973 25.005396241354052 70.37652428277508 0 0 0
4575 1 31.73281833820377 25.21670260958337 72.45343791278836 0 0 0
4797 1 29.363600796172364 20.994668152184587 74.33469167182284 0 0 0
4829 1 29.922922187354278 25.052917705184687 74.56066479579496 0 0 0
4296 1 4.735444260384858 26.85276514530784 68.12931337160849 0 0 0
4355 1 2.497856056446944 0.20634580304049294 72.37269437946145 0 0 0
4613 1 4.354899928377445 0.491905890980418 74.35233026883502 0 0 0
4328 1 4.606961962912414 30.909413663277224 68.44039939581802 0 0 0
4323 1 2.3973900700405726 29.0697948922899 68.1175976425915 0 0 0
4548 1 0.838443310361623 27.20356526063462 72.20783256479575 0 0 0
4552 1 4.4755238188978925 26.993533156714655 72.37382237956041 0 0 0
4578 1 2.689176150052072 31.159278567061882 69.9635876401561 0 0 0
4579 1 2.6929265854951447 29.383533096062123 72.06429782935355 0 0 0
4581 1 4.757087855795615 28.90339494194157 70.41720393360757 0 0 0
4584 1 4.306235630513573 31.4526638351285 72.29722973525213 0 0 0
4580 1 0.3783820181227202 31.24456072238844 72.43607692623132 0 0 0
4577 1 0.6471960150439732 29.235899832996616 70.24812814587224 0 0 0
4582 1 6.7740850804085655 31.353734002698854 70.37996265567948 0 0 0
4833 1 0.6599411692795426 29.026899182916118 74.42932676448883 0 0 0
4834 1 2.258294516685743 31.68372352732988 74.04327714644744 0 0 0
4609 1 0.07512741244439082 0.38830135439864527 74.37961682626913 0 0 0
4331 1 10.878141303710818 28.931800056108184 67.9328068760272 0 0 0
4107 1 10.918900513901827 -0.15971267183499846 67.49445302211485 0 0 0
4300 1 9.081160301741633 27.01404127677607 68.07799326506556 0 0 0
4332 1 9.062192979681976 31.116390171013638 67.97640738215256 0 0 0
4304 1 12.663832207268372 26.886144682076434 67.93580755412417 0 0 0
4361 1 8.632047680912134 0.13268399375637874 69.9955530736701 0 0 0
4327 1 6.904148744744644 28.969054260822393 68.51798797806498 0 0 0
4365 1 12.794485394770813 -0.0839231632340645 70.18118608892381 0 0 0
4550 1 6.265227575598759 26.784594709108728 70.46956634333633 0 0 0
4583 1 6.638448689990657 29.332092044092562 72.14817957024682 0 0 0
4556 1 8.726972864367275 26.858368352912596 72.38517423995839 0 0 0
4554 1 10.88113665521807 27.16391120541667 70.17910724676061 0 0 0
4585 1 9.068595115170808 29.143344668608275 70.24829001140635 0 0 0
4586 1 10.806672349689178 30.952149932901328 69.74301299561768 0 0 0
4587 1 10.931409464425398 28.741624232659774 72.42394753941934 0 0 0
4588 1 8.803631723171529 31.418233009679057 72.13325287326631 0 0 0
4842 1 10.524026990663216 30.99029531916296 74.42810405044911 0 0 0
4560 1 12.773378396695195 26.95414351798537 72.1562507212343 0 0 0
4589 1 12.880912244998663 29.075726554891514 70.00826329083536 0 0 0
4111 1 14.68120835446353 -0.05629855818447957 68.06662914604749 0 0 0
4335 1 14.702214161551629 28.764580657244014 67.89780357946618 0 0 0
4367 1 14.925530189375609 0.030416184120970573 71.91402448932907 0 0 0
4369 1 17.119900160951087 -0.04274970126366703 70.34067268991085 0 0 0
4592 1 12.810363177169522 31.11595517236579 71.80790740946904 0 0 0
4564 1 17.31245008717189 26.32848559728163 72.99768594292779 0 0 0
4558 1 15.000269410230928 26.88560568552992 69.97403043025527 0 0 0
4562 1 19.014411813041438 26.798080114320122 70.83184827519634 0 0 0
4590 1 15.086339442995923 30.979180024432065 70.38428241334027 0 0 0
4591 1 15.544081986106296 28.775445632789648 71.97150237694501 0 0 0
4593 1 17.113181250059725 29.1837481134849 69.84124183743354 0 0 0
4595 1 18.855134906646764 29.086485970325832 72.83427573035536 0 0 0
4596 1 17.086842733417395 31.29470420350699 72.44443319696677 0 0 0
4594 1 19.01187996175271 30.787080352599904 70.49186215298039 0 0 0
4818 1 19.646088554427557 26.752401079287118 74.6662116339108 0 0 0
4850 1 19.40371797008044 31.381098271583475 74.41272451069145 0 0 0
4846 1 15.041750869192938 31.263596425034937 74.46598076723328 0 0 0
4849 1 16.710579860435093 29.176120329317573 74.63657004105048 0 0 0
4814 1 15.078023181525406 26.828068407774875 74.37352733122366 0 0 0
4377 1 25.66189039969394 0.11767466708623694 70.12296393032123 0 0 0
4375 1 23.2915862515358 0.23647046950045816 72.13875217231433 0 0 0
4373 1 21.220155111707438 -0.04873021517229051 69.7683065968035 0 0 0
4566 1 23.839798006326166 27.02731974986626 70.37769617675679 0 0 0
4312 1 21.39361196763835 27.098925658083992 69.00183260076936 0 0 0
4568 1 21.474659777629125 26.764776855966865 72.04888230480984 0 0 0
4597 1 20.82611896165586 28.86692661756115 70.66609355381574 0 0 0
4598 1 23.27734328298347 31.005148332922136 70.38312896361349 0 0 0
4599 1 23.086187693302573 28.925114964549394 72.4914804701909 0 0 0
4600 1 21.303142340409444 31.14486901507658 72.4186854554677 0 0 0
4601 1 25.495911240270576 29.21016986761666 70.57319353785162 0 0 0
4604 1 25.337831372615543 31.21619833227639 72.45758375603994 0 0 0
4854 1 23.478269896448477 31.053793829951932 74.44581928626768 0 0 0
4857 1 25.56910930002577 28.986177462393588 74.77847295737722 0 0 0
4853 1 21.0712415533614 28.85686515346285 74.35119829042885 0 0 0
4379 1 27.47061600441545 -0.18131743014689644 72.42566448505485 0 0 0
4352 1 29.269031988103325 31.23194233971031 68.50718137560695 0 0 0
4320 1 29.333512792488666 27.197882262286207 68.49894548788836 0 0 0
4576 1 29.54700937507944 27.16306684099034 72.5556283651732 0 0 0
4574 1 31.791416732625915 27.042546515770695 70.54500235234806 0 0 0
4570 1 27.468568495759357 27.033400341920448 70.2776681890215 0 0 0
4602 1 27.25915929166584 31.2646094652966 70.07776680119609 0 0 0
4603 1 27.367296028087303 28.867980434172964 72.46422761533093 0 0 0
4605 1 29.558157501004228 29.24082159653486 70.52030499996877 0 0 0
4606 1 31.90288307629689 31.031323495656085 70.18049451550625 0 0 0
4607 1 31.812633511294393 29.108197039536236 72.37365932445051 0 0 0
4608 1 29.35580787816267 31.112576430707726 72.28540817506858 0 0 0
4858 1 27.25179200827847 31.207770035366416 74.52841052822625 0 0 0
4861 1 29.24515230108522 29.157993711482174 74.43391704076639 0 0 0
4862 1 31.638673677185064 30.91067596643052 74.38102620165897 0 0 0
4830 1 31.783044305980734 27.423389628566255 74.58403576675813 0 0 0
4826 1 27.602896198985082 26.846955504654222 74.59518301413542 0 0 0
4616 1 4.994174868921034 1.9619727317894873 76.64758620671242 0 0 0
4643 1 2.5091186845151126 3.856606940422485 76.72183317640315 0 0 0
4648 1 4.747349343821545 6.105926535458534 76.20736990554656 0 0 0
4866 1 2.4782682382185333 2.278230903559999 78.76699038862303 0 0 0
4901 1 4.612116111095577 4.0942352430869615 78.6624816823587 0 0 0
4897 1 -0.058598129236545254 4.282075813055007 78.65018657223766 0 0 0
4612 1 0.2967311498719082 2.115577685929487 76.44293739001856 0 0 0
4898 1 2.445428369509582 5.826664292237757 78.6464626752655 0 0 0
4611 1 2.032333280209393 0.013260274727749486 76.45022709652251 0 0 0
4868 1 0.5867993786723054 2.048601193895234 80.68666462344436 0 0 0
4644 1 0.546743508032394 5.83376666646587 76.322414268069 0 0 0
4869 1 4.284427005766753 -0.002506389524513077 78.34475371281297 0 0 0
4870 1 6.570144025151329 1.6512517047463215 78.79410337491738 0 0 0
4647 1 6.944857367830317 4.175200684516076 77.11323084977138 0 0 0
4865 1 0.6192792452140642 0.1040201000992714 78.43258094439135 0 0 0
4899 1 2.6741762258666855 4.4159919765904885 80.97477695723963 0 0 0
4650 1 10.605297275412783 6.303320759949515 74.53775775669754 0 0 0
4618 1 10.806674311384514 2.4081633056433147 74.61765777452159 0 0 0
4902 1 6.585834704121298 6.5603351470963505 78.72418311587914 0 0 0
4620 1 8.743179813334223 1.7071854137987525 76.85006377287287 0 0 0
4651 1 10.652280712312658 4.225540286464005 76.48901363953652 0 0 0
4652 1 8.736815025236975 6.205983526539938 76.6164377414857 0 0 0
4874 1 11.25956378371363 2.5523737780318556 78.2873875681906 0 0 0
4905 1 8.57972653571016 4.367753613173586 78.77611560737633 0 0 0
4906 1 11.031046810354589 6.281556276563032 78.69015387615248 0 0 0
4615 1 6.588434937431931 32.89924803785166 76.27310738658873 0 -1 0
4908 1 8.934341363609693 6.533491882588397 81.07615560565499 0 0 0
4653 1 12.884845809354788 4.421276622783333 73.96874665213541 0 0 0
4909 1 12.9334097190012 4.294384825059365 78.664063294553 0 0 0
4873 1 8.506657010226283 32.98413536873994 78.36048684373156 0 -1 0
4619 1 11.026738694368579 0.37046374750655947 76.49820355655888 0 0 0
4877 1 13.227277926072926 0.4379103933734631 78.22115153116522 0 0 0
4621 1 13.132440835407516 32.81812689881018 74.12632738623488 0 -1 0
4625 1 17.26303030413192 0.09610445128940694 74.38572706967025 0 0 0
4658 1 19.5225679219956 6.493357235514407 74.34730766272799 0 0 0
4626 1 18.93482694737897 2.109119297830423 74.40190183235623 0 0 0
4622 1 14.892547052521474 2.344262507856067 74.02381710727279 0 0 0
4654 1 15.230142038740764 6.56248888592775 74.65883167356182 0 0 0
4657 1 17.15065416284544 4.356457590477703 74.41220821074302 0 0 0
4624 1 13.565281828575893 2.123831402670066 76.17831116344092 0 0 0
4628 1 17.065185083465366 2.3077396405987876 76.91722136498511 0 0 0
4655 1 14.47797024759673 4.524257888573691 76.40092855356598 0 0 0
4659 1 19.35617119810559 3.765222621142924 76.60004895499239 0 0 0
4878 1 15.031491312490381 2.3136840443459614 78.77428706454052 0 0 0
4882 1 19.120007888261693 2.216856124545841 78.93231695985725 0 0 0
4913 1 17.085191006722614 4.1443280616920255 78.76244797165874 0 0 0
4660 1 17.614625767923215 6.388704806661701 76.55334927040117 0 0 0
4910 1 15.264459516620308 6.236699386486524 78.57585888641793 0 0 0
4627 1 19.003554353437448 0.11744224077059245 76.49841496307204 0 0 0
4911 1 14.881796801220826 4.207638952865135 80.96384037699877 0 0 0
4884 1 16.96676698797017 1.75005854862157 80.87495493020707 0 0 0
4656 1 12.6863867425641 6.3252661869848765 76.51565082487092 0 0 0
4914 1 19.19583885464883 6.362820788022278 78.87959885407244 0 0 0
4623 1 15.413950750289551 0.11070654317474393 76.4896016368695 0 0 0
4633 1 25.69470674889064 0.18873135462127183 74.42486778986762 0 0 0
4632 1 21.131497624130372 2.1408898503010017 76.09518641949192 0 0 0
4636 1 25.237454077152336 2.1085263513696555 76.45647517003465 0 0 0
4663 1 23.026038888715608 4.501839595957806 76.48175290488916 0 0 0
4668 1 25.30627466413955 7.042567320543378 76.5788896765487 0 0 0
4886 1 23.237121529761726 2.4260071014833753 78.55527780796547 0 0 0
4917 1 21.079912087714607 4.450670183130536 78.94570222803549 0 0 0
4921 1 25.215015137212482 4.409742226827662 78.31714886269901 0 0 0
4918 1 23.47874305762523 6.5787036939062515 78.59459957873179 0 0 0
4885 1 20.984934833575913 0.23549815559790263 78.3948286122928 0 0 0
4888 1 20.97434957011696 2.4975538730975435 80.8028082121855 0 0 0
4664 1 21.079995408259517 6.142696101892367 76.64983944800932 0 0 0
4892 1 25.435607931704077 2.0598646274913186 80.59910641913592 0 0 0
4924 1 25.554968972709474 6.415397648102512 80.59028334832595 0 0 0
4920 1 21.268525520302536 6.373259772800296 80.85149049923278 0 0 0
4670 1 31.61896323817917 6.351852351322318 74.18532644964527 0 0 0
4666 1 26.9282294651308 6.595528712377462 74.48782850899548 0 0 0
4669 1 29.489715959268796 4.568396294796898 74.05500583627895 0 0 0
4640 1 29.855585240315015 2.1158296125943465 76.5998304772776 0 0 0
4667 1 27.44847835011606 4.503228819335778 76.11440325457475 0 0 0
4671 1 31.719635795566948 4.2465254130749335 76.32754591311316 0 0 0
4890 1 27.275622314196774 2.788209367867385 78.15875277566076 0 0 0
4894 1 31.40844802773191 1.5737495210881274 78.86232234169238 0 0 0
4922 1 27.63569286785055 6.12976852705072 78.98398722151865 0 0 0
4925 1 29.761505343612924 4.26157779816783 78.91467625532636 0 0 0
4672 1 29.606145294030018 6.1331857411574635 76.6789226902331 0 0 0
4639 1 31.684232988533648 0.09975740235557562 76.57045037149719 0 0 0
4893 1 29.4182527616402 0.10994212686700992 78.73296502067893 0 0 0
4637 1 29.491871180417927 -0.17930691896363585 74.57050146011166 0 0 0
4928 1 29.11184548197068 6.247120562434121 81.23242606223603 0 0 0
4635 1 27.37867665589739 0.09544671803665479 76.58963827845889 0 0 0
4895 1 31.122216481080127 0.08146327795578061 81.06505051572084 0 0 0
4900 1 0.6316188100762811 6.169724655017819 80.69733531688149 0 0 0
4709 1 4.627370490522499 12.286324577192012 74.33661946520527 0 0 0
4674 1 2.6037741165917954 10.397036397707659 74.5457226173008 0 0 0
4904 1 4.730459752527069 6.028370473911586 80.69767807466184 0 0 0
4675 1 2.3050381546360645 8.210982268573893 76.26352999588447 0 0 0
4680 1 4.617975686204275 10.481345430405637 76.76902000489527 0 0 0
4707 1 2.793152639221328 12.50535268983279 76.618335501375 0 0 0
4930 1 2.6112345741527276 9.948993265674437 78.65489547186995 0 0 0
4933 1 4.412983786317697 8.210701002347257 78.55988832854943 0 0 0
4965 1 4.807316541627613 12.219437219213946 78.88387477154075 0 0 0
4929 1 0.5765488348780511 8.145884654008595 78.82306984759963 0 0 0
4676 1 0.6455706986061931 10.304657743445361 76.55497023762697 0 0 0
4961 1 0.3596444293137871 12.467379328184098 78.39716879450117 0 0 0
4936 1 4.560717953463941 10.414302147028325 80.69488063610848 0 0 0
4932 1 0.5036236591380151 10.23987379194443 80.53697540477505 0 0 0
4963 1 2.3579132275223134 12.040193005098947 80.54648069574543 0 0 0
4931 1 2.7626385443618684 7.957351773743487 80.67179892743829 0 0 0
4713 1 8.475599837563143 12.403283114340722 74.431893614489 0 0 0
4678 1 6.831236303456679 10.139181291609017 74.41634292678873 0 0 0
4682 1 10.870141230453774 10.561580345205481 74.66476252661157 0 0 0
4934 1 6.569826505508051 10.074377633541298 78.67375851937973 0 0 0
4711 1 6.615275531822129 12.440304819124595 76.5526575096803 0 0 0
4679 1 6.974075446062933 8.265746670171437 76.73826985637079 0 0 0
4683 1 10.373639299202438 8.333885990450058 76.24321378207655 0 0 0
4684 1 8.692995754452717 10.578485451206307 76.6317991950552 0 0 0
4715 1 10.921850921678395 12.701530116638605 76.78084450166638 0 0 0
4937 1 9.050170899217093 8.153403701431051 78.64282927782642 0 0 0
4938 1 10.953970670091065 10.50507026072521 78.93285617570182 0 0 0
4969 1 8.550384802541293 12.485444925095631 78.74250444412695 0 0 0
4973 1 12.818150268339103 12.777154082788769 78.70325371647954 0 0 0
4941 1 12.607725023549662 8.71432514088517 78.34055819353635 0 0 0
4967 1 6.6568289413928765 12.449808972478511 81.05164386086852 0 0 0
4935 1 6.537047582051637 8.076383934608335 81.10734807036562 0 0 0
4940 1 8.751204833922321 10.538272448541683 80.6559459875776 0 0 0
4689 1 16.840372245391997 8.604628013105943 74.83463478733371 0 0 0
4688 1 12.70710094084103 10.767005661358672 76.61301747853881 0 0 0
4690 1 19.34866656653282 10.29009233458097 74.67029959229959 0 0 0
4686 1 14.760786303182346 10.308800005263047 74.8108362066773 0 0 0
4687 1 14.771360645664016 8.324262168330064 77.17281801289265 0 0 0
4691 1 19.34793617088538 8.204011962112116 76.58760429635664 0 0 0
4692 1 16.624444972795374 10.310481436087015 76.87101065569593 0 0 0
4719 1 14.784911429486922 12.564064456305726 76.4812534554231 0 0 0
4942 1 15.020889073365844 10.643846094504227 78.94941676946654 0 0 0
4945 1 17.09419926544817 8.226337716504238 78.67447713018997 0 0 0
4946 1 19.085853372676606 10.448997806966835 78.47870100804751 0 0 0
4977 1 17.027786922355013 12.510576779060845 78.5181830836712 0 0 0
4723 1 19.1007931556781 12.325454100901311 76.46185170690171 0 0 0
4979 1 19.20338856290633 12.329189587841919 80.93087955268314 0 0 0
4697 1 25.140901929074705 8.554345525674979 74.37497474896065 0 0 0
4693 1 21.85695389812906 8.045521367122491 74.2549071903921 0 0 0
4695 1 23.11466569762261 8.565414866773033 76.60727684992052 0 0 0
4696 1 21.213889488639087 10.315355435770975 76.37292454655933 0 0 0
4700 1 25.05704819659534 10.597472320309066 76.5128635882274 0 0 0
4727 1 23.236859991036148 12.443879801881257 76.52693044216733 0 0 0
4949 1 21.160333905785215 8.291319929899858 78.85935066355766 0 0 0
4950 1 23.295841902612533 10.426741835293436 78.68364778410898 0 0 0
4953 1 25.34056648863572 8.51323551286257 78.93828590767409 0 0 0
4981 1 20.972762775676415 12.596155112567896 78.56822675829056 0 0 0
4985 1 25.529007376909167 12.088389762909014 78.80272436528146 0 0 0
4951 1 23.177014169627906 8.296962875135218 80.99532507491533 0 0 0
4952 1 21.209539234326233 10.29179488077448 80.78320051934402 0 0 0
4956 1 24.715079535582333 10.625507473342081 80.89667630941476 0 0 0
4983 1 22.738401625599106 12.383875714610035 80.70991231252327 0 0 0
4698 1 27.217488080710734 10.438467357820727 74.95123545623146 0 0 0
4701 1 29.26676628123656 8.519280157238088 74.52069203417203 0 0 0
4926 1 31.576507954172023 6.287312370829808 78.87428608360969 0 0 0
4699 1 27.8007352898787 7.962439264358175 77.18115104592613 0 0 0
4703 1 31.7129828081411 8.03636902198335 76.91988412252073 0 0 0
4704 1 29.915211727629945 10.368041640180948 76.72387358420981 0 0 0
4731 1 27.30605881125294 12.628931022488477 76.67244436907265 0 0 0
4735 1 31.77840662329966 12.188797611674804 76.53478278843683 0 0 0
4954 1 27.805543884725235 10.49452786235032 78.26552732347268 0 0 0
4957 1 29.46761845272983 8.232411949943575 79.29349422772033 0 0 0
4958 1 31.725250880989247 10.21897553387305 78.6101555234514 0 0 0
4989 1 29.609362337665956 12.371154390312013 78.22102279921376 0 0 0
4959 1 31.75878316271854 8.310664884453546 80.77923089161473 0 0 0
4991 1 31.794709496520355 12.286394432220835 80.52859455336684 0 0 0
4955 1 27.04497792239888 8.838972873078587 81.1419170039935 0 0 0
4987 1 27.303883885072096 12.633123927844041 80.61243509050077 0 0 0
4737 1 0.5327107951412029 16.4315896427532 74.37390366151365 0 0 0
4712 1 4.531474190153966 14.542650636642563 76.40979363431467 0 0 0
4739 1 2.712239557135298 16.520379605676982 76.29490453945735 0 0 0
4744 1 4.619236337741013 18.63404615586254 76.49711006094705 0 0 0
4962 1 2.801997253770588 14.286126645836166 78.56992608854583 0 0 0
4994 1 2.7693297172193168 18.574164631482592 78.8546014028843 0 0 0
4997 1 4.435369397693403 16.247771227308743 78.69435558085534 0 0 0
4708 1 0.5772996990341156 14.333834885842842 76.5716458792962 0 0 0
4993 1 0.6390618180469312 16.41093343171401 78.45264046776101 0 0 0
4740 1 0.4769721224290349 18.361410155241572 76.69752908324483 0 0 0
4964 1 0.14780728120880468 14.46849858690604 80.85628816976543 0 0 0
4995 1 2.4049112171478493 16.418828976258723 80.65244412836039 0 0 0
4746 1 10.70411798756173 18.427745316949203 74.33717664894526 0 0 0
4966 1 6.528682523753015 14.453030733067319 78.64000104670379 0 0 0
4743 1 6.702247899212771 16.52612976003756 76.41106508852461 0 0 0
4998 1 6.6139801628109955 18.664981087675248 78.58781938854067 0 0 0
4716 1 8.820542298723867 14.20071248102385 76.21965352298764 0 0 0
4747 1 10.410228720192391 16.63604248498908 76.63192499097238 0 0 0
4748 1 8.80428324084274 18.66194751781768 76.94626446240592 0 0 0
4970 1 10.518960158302566 14.611531766909964 78.89828287082335 0 0 0
5001 1 8.656716709774448 16.362352986699854 78.90558761071323 0 0 0
5002 1 10.67705308160382 18.646927639929096 78.93157051157237 0 0 0
5005 1 12.701998958437512 16.337820727969184 79.12387577300846 0 0 0
5008 1 13.015323491377824 18.278692381338384 80.85111042900365 0 0 0
5004 1 8.660213216145042 18.68916179486965 80.73546508304398 0 0 0
4972 1 8.437426172705745 14.26464053287045 80.78828399739966 0 0 0
4999 1 6.32790557454669 16.455009233424178 80.67177365813983 0 0 0
4752 1 12.502020127081684 18.52195532421726 76.8308153644985 0 0 0
4750 1 15.193513064506359 18.689684374988815 74.55793790773339 0 0 0
4718 1 14.773574035384112 14.702046561629492 73.97632138186654 0 0 0
4720 1 13.279051855491705 14.753079509036981 76.99996184699906 0 0 0
4724 1 16.771721847988236 14.505502806695796 76.40023022960678 0 0 0
4751 1 15.370737885500038 16.85195036253882 76.57032654914981 0 0 0
4755 1 19.413279220391406 16.718089082181958 76.68957930426294 0 0 0
4756 1 17.215862489347494 18.704573263948614 76.50646375479596 0 0 0
4974 1 15.29006377689027 14.69876829175777 78.8327914298431 0 0 0
4978 1 19.12265331398797 14.410230625102063 78.53527675080511 0 0 0
5006 1 14.540599978283238 18.628347647933786 78.64770792326163 0 0 0
5009 1 17.463817538804967 16.54192020818546 78.56371034446707 0 0 0
5010 1 19.835015533110912 18.590779180863912 78.77285421453243 0 0 0
4726 1 23.732012921480617 14.309406232206902 74.15105013777782 0 0 0
4761 1 25.756743246165485 16.32300448200315 74.22574808171346 0 0 0
4728 1 21.542077880417207 14.53557259031097 76.41166953997197 0 0 0
4732 1 25.255099949208674 14.32384926757753 76.75007979308997 0 0 0
4759 1 23.411995949929754 16.490674423443604 76.51450266945987 0 0 0
4760 1 21.184636592666468 18.9848648078812 76.26783588542918 0 0 0
4764 1 25.593974566288576 18.43605057543252 76.71911957435809 0 0 0
4982 1 23.23223864597371 14.33641171787017 78.6115832922832 0 0 0
5013 1 21.361170959156897 16.268942346472382 78.49153169436141 0 0 0
5014 1 23.07694756058982 18.393638899358915 78.43009682956985 0 0 0
5017 1 25.132732354333303 16.5562789624718 78.787337080507 0 0 0
5016 1 21.40382603949358 18.8445678752922 80.73455430638845 0 0 0
5015 1 23.11918787271138 16.542781062185643 80.43925621697885 0 0 0
4984 1 21.083238375983623 14.698134155848454 80.5463361070779 0 0 0
4766 1 31.788261559337005 18.583586093019555 74.61372703552908 0 0 0
4736 1 29.901284477363216 14.545703472174878 76.36993842429838 0 0 0
4763 1 27.57340498248681 16.35651601301742 76.82957590081024 0 0 0
4767 1 32.00905055763697 16.03411435771094 76.43725472568728 0 0 0
4768 1 29.720399656676573 18.511125030144708 76.67503317189815 0 0 0
4986 1 27.79398912387024 14.80565573796229 78.88564715949724 0 0 0
4990 1 31.327176736223546 14.68224337125238 78.78162110963977 0 0 0
5018 1 27.49586448577305 18.578645362838227 78.5548102520861 0 0 0
5021 1 29.68756070766411 16.68581713616517 78.90736983294856 0 0 0
5022 1 31.627131627400285 18.663298525110587 78.77752514774865 0 0 0
5019 1 27.54765641748486 16.750135643875062 80.58133492069848 0 0 0
5023 1 31.646945176515363 16.603688610485573 80.84009187206082 0 0 0
4992 1 29.44031955485797 14.290474504435084 81.07328387404178 0 0 0
5024 1 29.789499899892178 18.662450230442595 80.72185490452362 0 0 0
4805 1 4.637582594671587 24.87722438524126 74.69673194388484 0 0 0
4801 1 0.32565414958348904 24.90198330454032 74.45141471131559 0 0 0
4771 1 2.621313750511835 20.50299336968363 76.5598314877233 0 0 0
4776 1 4.706260645165029 22.691316800177727 76.24472722064704 0 0 0
4803 1 2.522423337129445 24.672848352697187 76.43734999590885 0 0 0
5026 1 2.660986607840867 22.851751079063177 78.92876454152018 0 0 0
5029 1 4.414809870100459 20.754397988976745 78.59600114321066 0 0 0
5061 1 4.417617725918763 24.66635138499294 78.17719521123625 0 0 0
5025 1 0.6012623554079662 20.794068694663526 79.11056138584726 0 0 0
4772 1 0.6237306340202222 22.722903892323664 76.8577063096909 0 0 0
5057 1 0.603373599718538 24.610599029804764 79.0415109880772 0 0 0
5032 1 4.45064630632055 22.623768448489802 80.56274550918931 0 0 0
5059 1 2.851225008428856 24.751398920856634 80.49124286908214 0 0 0
5027 1 2.5612844885090147 20.787729235091998 81.10866503528462 0 0 0
5028 1 0.3982810772563763 22.77531849333058 81.38890949560373 0 0 0
4813 1 12.920714946011246 24.570458505452336 74.2121726326088 0 0 0
4809 1 8.588318873813074 24.84314911921372 74.16634017600396 0 0 0
5030 1 6.5858182067920135 22.90035640351676 78.42375841720596 0 0 0
4807 1 6.957617579806779 24.957690179996817 76.48964840141281 0 0 0
4775 1 6.809478726706034 20.433737101335225 76.50969416109126 0 0 0
4779 1 10.683086015871204 20.703345225952468 76.90233986816925 0 0 0
4780 1 8.707591709022841 22.445925247237618 76.29934417669784 0 0 0
4811 1 10.742898686415705 24.969296559463004 76.51589672048783 0 0 0
5033 1 8.752092972495706 20.695416937430725 78.79143865240931 0 0 0
5034 1 10.411097877775962 22.704882897807426 78.88714427706866 0 0 0
5065 1 8.48329370914157 24.956636643619884 78.72649648781554 0 0 0
5031 1 6.9854416519342655 20.9303952505255 80.79554824403147 0 0 0
5035 1 10.581417881317343 20.7415296369188 81.10768023390885 0 0 0
5037 1 12.619321498280847 20.681592666192095 78.76725916901799 0 0 0
5067 1 10.898147785217676 25.071720334991657 80.78777340799294 0 0 0
4784 1 13.005243976696807 22.71979908856314 76.05091859868021 0 0 0
5069 1 12.595602007252596 24.980175170502818 78.64043241047209 0 0 0
4781 1 12.914914394148592 20.516869479406363 74.61408867264333 0 0 0
4782 1 14.912416939842032 22.434331914527693 73.85422350981642 0 0 0
4785 1 17.19218177880645 21.068049341103833 74.39162881696619 0 0 0
5041 1 16.689827498785327 20.70600051510002 78.90119712582825 0 0 0
4783 1 14.640303396340876 20.310558631581923 76.69995409031665 0 0 0
4788 1 17.107901083427954 22.747133357393697 76.9173066275353 0 0 0
4815 1 14.84486499916407 24.676117539492527 76.58762097314262 0 0 0
4819 1 19.06670417214648 24.781170014657768 76.69252091468219 0 0 0
5038 1 14.80414426222056 22.840200472097113 78.53574971640309 0 0 0
5073 1 16.766605204240843 24.939790874340222 78.75499393299575 0 0 0
5071 1 14.825834805933095 25.201508061410863 80.78001962815645 0 0 0
5042 1 18.967398970555013 23.065365879547514 78.8871418626676 0 0 0
5075 1 19.304003459319322 24.882513344366206 81.17638031586158 0 0 0
5044 1 16.718990979331327 23.139955171398967 80.66674697498262 0 0 0
4787 1 19.036428627270418 20.634876007333634 76.91208035818535 0 0 0
4825 1 25.44352316130028 24.919832629558833 74.2728619685547 0 0 0
4793 1 25.495991950200754 20.21632327336128 75.03248766838949 0 0 0
4791 1 23.599631704099192 20.924839907377812 77.04180644932134 0 0 0
4792 1 20.9964769574111 22.810230460532903 77.13075188764128 0 0 0
4796 1 25.97071571973341 22.687631878579374 76.46586326730151 0 0 0
4823 1 23.407013470522735 24.81385351795104 76.72649203420549 0 0 0
5045 1 21.28738282695045 20.69347476110663 78.89461555110252 0 0 0
5046 1 23.810190242372514 22.995300421970207 78.70129577594969 0 0 0
5049 1 25.637801418594023 20.97351592080522 78.62825272867572 0 0 0
5077 1 21.208531620050888 24.739371508164833 78.89501795594076 0 0 0
5081 1 25.608394584049528 25.067465957472187 78.49192186769628 0 0 0
5048 1 21.448157931374688 22.572124292274857 80.6441942489099 0 0 0
5079 1 23.262177187744356 24.694074897554195 80.68468252893868 0 0 0
5047 1 23.522053031292547 20.767721907489804 80.89264315333176 0 0 0
5052 1 25.882542724292236 22.79705770372946 80.86637754400044 0 0 0
4798 1 31.86208689813609 22.90299332257656 74.0113644830117 0 0 0
4794 1 27.776799086915304 23.07607205477744 74.40740046153915 0 0 0
4795 1 27.862716427099905 20.909655047571796 76.5516523345702 0 0 0
4799 1 31.897569201350066 20.590408921406283 77.02082211663256 0 0 0
4800 1 30.24859016100529 23.07053123129944 76.48547358842114 0 0 0
4827 1 27.79196048765011 24.77409326045773 76.54572575087542 0 0 0
4831 1 32.14770864338084 24.911562807887787 76.7318170924436 0 0 0
5050 1 27.86718520279323 23.113513553293867 78.53211503514672 0 0 0
5053 1 29.67987769816625 21.11956481337671 78.65909090922786 0 0 0
5054 1 31.66354534382427 22.841850523935136 78.82876867945467 0 0 0
5085 1 30.010221204515233 25.067982028236166 78.59746163504651 0 0 0
5051 1 27.437267226139905 20.184930963678365 80.97393405058347 0 0 0
5087 1 31.51875033991261 25.061683677238612 80.86312210856192 0 0 0
5056 1 29.705097808530244 22.720348075312263 80.9702338645402 0 0 0
5055 1 31.840487091880572 20.621295324201814 81.01950741568936 0 0 0
4802 1 2.5158954872691672 26.929186451222733 74.57141822783449 0 0 0
4837 1 4.20737530793483 29.51452678513161 74.43219435327988 0 0 0
4808 1 5.00643177413279 27.0804655910903 76.69110044915094 0 0 0
5058 1 2.776181971128029 27.3486393493505 78.39635570030953 0 0 0
4804 1 0.46593568972751886 27.02848469534455 76.57345917581509 0 0 0
4835 1 2.6562805690960594 29.095874166354868 76.48162144082364 0 0 0
4840 1 4.395838130822884 31.487742015711035 76.27696443787971 0 0 0
5090 1 2.4165623375760275 31.462784361774062 78.62257365781895 0 0 0
5093 1 4.397742316989706 29.492989883230795 78.55889348163548 0 0 0
5089 1 0.1637456721515856 29.381085911529382 78.55905646701673 0 0 0
4836 1 0.36869405517387416 31.107615761536618 76.55918115622907 0 0 0
5092 1 0.04679399410221138 31.44618789996078 80.68582157222859 0 0 0
5064 1 4.51166159617481 27.341836605064085 80.28295344250249 0 0 0
5062 1 6.821560244523711 27.004843160145864 78.57201566894082 0 0 0
5096 1 4.406011786567456 31.22568314337573 80.63747413278375 0 0 0
5091 1 2.163862044974941 29.149893781505877 80.48597600135048 0 0 0
4810 1 11.152841904853457 26.910548190731113 74.44603082145879 0 0 0
4845 1 13.170860211553492 28.762166970381955 74.03957972078452 0 0 0
4841 1 8.779499007502812 29.04374145441438 74.25520070732794 0 0 0
4838 1 6.732833947220104 31.5001738256759 74.17655444408616 0 0 0
4806 1 6.508895246855308 27.23700867967021 74.35253548677387 0 0 0
4839 1 6.403160571994396 29.554897126888378 76.24650861818472 0 0 0
4812 1 8.749047118850696 26.90555822252047 76.17440178343006 0 0 0
5066 1 10.457690610467589 27.071398895404723 78.7342854130983 0 0 0
5094 1 6.571528509112199 31.47684080926849 78.66121309829006 0 0 0
4843 1 10.86196420044927 29.059826643540838 76.52436303887119 0 0 0
4844 1 8.510946839338475 30.983272492050624 76.48366518510483 0 0 0
5097 1 8.694999615926859 28.77934551608366 78.2363617927342 0 0 0
5098 1 10.582770650900033 30.901663216695763 78.41447583064259 0 0 0
4848 1 12.666228134045133 31.331981835776553 76.61700085463526 0 0 0
4816 1 12.78056914712021 26.815625337163375 76.31566296381588 0 0 0
5104 1 12.910253008370566 31.44652868031975 80.09448964308528 0 0 0
5095 1 6.3912447553662 29.267772202649287 80.7120757698011 0 0 0
5101 1 12.95996146247064 28.937234983548073 78.6132193984368 0 0 0
5068 1 8.440775442695367 27.13044049522404 80.9134067174515 0 0 0
4883 1 19.371874567369126 0.22996392507923014 80.6320623775834 0 0 0
4881 1 17.069664814148563 -0.08164794602139565 78.32257190362682 0 0 0
5070 1 15.048910712630814 26.973081321355146 78.74625411815975 0 0 0
4820 1 17.112648565356427 26.926818914388043 76.12363032522049 0 0 0
4847 1 14.8185698725513 29.038891301475275 76.47520076692048 0 0 0
4852 1 17.35651929943076 31.070441835798178 76.50476918797615 0 0 0
5102 1 15.048078436381395 30.98068398806439 78.28961552427431 0 0 0
5105 1 17.026332428262354 29.076352804252462 78.22980084160703 0 0 0
5106 1 19.29680491232392 31.098701733072627 78.69404994332942 0 0 0
5074 1 18.833220142591436 26.9018191540139 78.67108301068943 0 0 0
4851 1 19.418952597643898 28.984604501236348 76.52928600626919 0 0 0
5108 1 17.020160443850667 31.3832321422474 80.79249506938511 0 0 0
5076 1 17.079090359971072 27.084891032071315 80.55259853835699 0 0 0
5103 1 15.05813780842656 28.86696157711613 80.57714838343239 0 0 0
5107 1 18.902132800791467 29.149705413492708 80.76873818265075 0 0 0
4629 1 21.39181565663217 0.23570839709141642 74.25585854783883 0 0 0
4822 1 23.243352568604866 26.374773283790883 74.48881705938126 0 0 0
4631 1 23.221052684081457 -0.15656662166558383 76.87957868693498 0 0 0
4889 1 25.11105295504611 0.06271885375409024 78.41127215507863 0 0 0
4887 1 22.991309383647252 0.303448213227844 80.51363184576267 0 0 0
4824 1 21.405690892558578 26.759713223238048 77.0842239392958 0 0 0
4828 1 25.41927063824678 27.07194987924045 76.82572582737635 0 0 0
5078 1 23.310714569626512 26.987053043727393 79.11546610433626 0 0 0
4855 1 23.443281068808535 28.79772046838978 76.23644036937273 0 0 0
4856 1 21.320867603418733 31.480939123190822 76.13526183897203 0 0 0
4860 1 25.287203794855127 31.171179641392666 76.7896902569199 0 0 0
5109 1 20.963968924539685 28.75533689490737 78.79613401643418 0 0 0
5110 1 22.84378381428304 30.994934440104686 78.63830357212814 0 0 0
5113 1 25.291325533082286 29.240480626980496 78.93062849249924 0 0 0
5116 1 25.100019665389528 31.59930276733476 80.34093320924987 0 0 0
5112 1 21.407965447617748 31.197761326125807 80.76592840446733 0 0 0
5084 1 25.378624102794276 26.859534850846263 80.80093703464014 0 0 0
5111 1 23.059053124693023 28.982476869303703 80.8783243506343 0 0 0
4832 1 29.78468495491049 26.875798963837507 76.68992089620812 0 0 0
5082 1 27.17629347572975 27.24685167287505 78.77036923407823 0 0 0
5086 1 32.00901190326702 27.03933418585977 78.72196206345251 0 0 0
4859 1 27.660888129763556 29.24619436366681 76.8126116011326 0 0 0
4863 1 31.438088245652708 29.12288432150662 76.71645217403618 0 0 0
4864 1 29.410127686416963 31.37580042013152 76.70998186044888 0 0 0
5114 1 27.41037299998215 31.350102442150778 78.85281722697142 0 0 0
5117 1 29.820132966146648 29.269933712194526 78.64462685384854 0 0 0
5118 1 31.473375957108715 31.452718388570712 78.55517418204762 0 0 0
5120 1 29.483546774932158 31.39765842078339 80.97964164455863 0 0 0
5115 1 27.064491988997183 29.299857415500625 81.12266972630513 0 0 0
5088 1 29.243954487700897 26.96304599777283 80.53891706414436 0 0 0
5119 1 31.071043554786286 28.918618587316907 80.80685686013601 0 0 0
4903 1 6.670227449593677 4.052355590635393 80.74094567386848 0 0 0
4872 1 4.3625555487490875 2.3246913291234272 80.78937985080975 0 0 0
5122 1 2.7317287372914887 2.108564640793621 83.31977841871155 0 0 0
5128 1 4.916981302596823 1.7394923504491517 85.27513829401796 0 0 0
5154 1 2.501518189401678 6.119223759303317 82.82899077793601 0 0 0
5155 1 2.3280978146322684 4.125202206608985 85.16524349451515 0 0 0
5157 1 4.454433059128184 4.164434356629031 83.07976880187795 0 0 0
5160 1 4.618186121912892 6.315247535425287 84.89944283915484 0 0 0
5153 1 0.3571600851826452 4.369758825629518 82.90790268170882 0 0 0
5124 1 0.3482735146845812 1.788062143183051 85.36635396707149 0 0 0
5413 1 4.52822297726288 3.8742621618490682 87.1779746976803 0 0 0
5156 1 0.6194102178073495 6.101087723877877 85.34803469977585 0 0 0
4867 1 2.5746595551170746 0.19179686357552023 80.80121893370668 0 0 0
5123 1 2.54804827008894 32.723094406951134 85.05064559487028 0 -1 0
5378 1 2.6236343188683593 1.7605662398826458 86.98005675796692 0 0 0
5410 1 2.8323947552394517 6.320174985852262 87.3457707851002 0 0 0
4876 1 8.925081257862685 1.8252208990605863 80.13414749959951 0 0 0
4912 1 12.683773336184126 6.121519840403265 81.1260905479641 0 0 0
4880 1 12.84750935060456 2.1197697002929425 80.68649216948441 0 0 0
4907 1 10.336833799804666 4.072343655690376 80.9515843731853 0 0 0
5158 1 6.600125595641115 5.917310203563214 82.7777054053754 0 0 0
5159 1 6.649650672244176 4.165889273715278 85.5548696482696 0 0 0
5126 1 6.882233456440164 1.951377416278875 82.72851539832652 0 0 0
5130 1 10.342570786204833 1.6157659567041522 82.81741326387753 0 0 0
5132 1 8.854719196620287 1.877649047386978 85.18525411619542 0 0 0
5161 1 8.457397380933969 4.0279111594751775 83.34055137433317 0 0 0
5163 1 10.78448993779094 3.9584787840245603 84.80073657611312 0 0 0
5164 1 8.366701447750064 6.428170435376862 85.01435585742156 0 0 0
5162 1 10.574864156947498 6.033580679510557 83.23518711971587 0 0 0
5136 1 12.819188970315025 1.8116246729537602 84.56011161289908 0 0 0
5165 1 12.527299699044795 3.8505953127322954 82.60793041586884 0 0 0
5127 1 6.867871744322419 -0.20637601059186836 84.94426703710052 0 0 0
5421 1 13.035029957136857 3.791177415872951 86.84293040685964 0 0 0
5168 1 12.79140028980438 5.981625695574871 85.24638263565731 0 0 0
5414 1 6.573051604818274 6.200730722443576 87.67288167962194 0 0 0
4915 1 18.75714040267878 4.331080540974779 81.04117114237668 0 0 0
4916 1 16.982782944328076 6.473081755468912 80.86119819368108 0 0 0
5134 1 14.871454999200413 1.517935865561033 82.81728864568824 0 0 0
5138 1 19.25049154241129 2.088139808173742 82.74745024648597 0 0 0
5140 1 16.862828867451718 1.7748252669543345 84.91970952566525 0 0 0
5167 1 14.822681801141679 3.92562487900643 84.67457910110184 0 0 0
5169 1 16.66189617064385 4.047629099201775 82.97925486765074 0 0 0
5166 1 14.487771870025092 6.13961829504926 83.19413146806856 0 0 0
5170 1 19.034099085788572 6.082222012458898 82.96765439875074 0 0 0
5172 1 16.671397789140176 6.072001359887681 85.07934068570569 0 0 0
5171 1 18.990396279776224 4.179366936443804 84.87303668245086 0 0 0
5422 1 14.997838789930155 6.176862065014533 87.05070572498083 0 0 0
5393 1 17.549907103076 -0.13056053466741677 87.00552896370131 0 0 0
5425 1 17.292410960286006 4.005122412239244 86.88803795661585 0 0 0
5390 1 15.138992800348765 1.885397939784263 86.99276903554792 0 0 0
5394 1 19.076677425597037 2.1073671510794947 86.52847803182931 0 0 0
5389 1 13.076265553213837 0.23789290854920192 87.1183863895454 0 0 0
5139 1 19.702792943586964 0.07063457659223688 84.78177390949055 0 0 0
4919 1 23.521356070734594 4.342041987667817 80.36378028164539 0 0 0
5426 1 19.160636633893375 6.305046532404597 86.86190953384629 0 0 0
5142 1 23.196377275374722 1.8666211204475782 82.97149606967709 0 0 0
5144 1 21.259214383169915 2.762621238852727 84.80456283771088 0 0 0
5148 1 25.55274636969843 2.1045236080438245 84.91395315380832 0 0 0
5173 1 21.359619285261672 4.404333127014379 82.30785494347407 0 0 0
5174 1 23.63415450677378 5.788424670798484 82.68546310124346 0 0 0
5175 1 23.44492879958809 4.167049610083824 84.8132243250821 0 0 0
5176 1 21.172432207407542 5.93564321226821 84.91020101968144 0 0 0
5177 1 25.440045185492195 3.645152657991933 82.65633944736012 0 0 0
5180 1 25.7432744291339 6.231731871642649 84.8709425362447 0 0 0
5429 1 21.2728301950462 3.8776945468406887 87.24240901965486 0 0 0
5433 1 25.645535634261936 4.239536991431731 86.88309095377286 0 0 0
5430 1 23.24997688375857 5.917711724444597 86.70356940750362 0 0 0
4891 1 27.50829486261554 0.08932558173559649 80.61668784200316 0 0 0
4927 1 31.640106102036555 3.8524390078173667 81.02328412595539 0 0 0
4923 1 27.09296304341527 4.022568458121483 80.77211947202133 0 0 0
4896 1 29.068066059666478 2.256141707338097 80.78732867305558 0 0 0
5146 1 27.81570866460851 1.7134967293192067 83.04622194326593 0 0 0
5150 1 31.259308906269485 2.073527692696399 82.86370782481727 0 0 0
5152 1 29.464605333324684 2.319551312630915 84.98769124746875 0 0 0
5179 1 27.430826279541055 4.002326779998847 84.58933639947234 0 0 0
5181 1 29.525747591882876 4.162902795650346 82.97033358048739 0 0 0
5183 1 31.655513679707767 3.7962202249573 85.01569755999684 0 0 0
5182 1 31.638896234459672 6.126588228124221 82.84483363938452 0 0 0
5437 1 29.841961204492755 4.376078310539106 86.96951564775378 0 0 0
5438 1 31.820229513895104 6.406122556561052 87.42761502633142 0 0 0
5434 1 27.438532904130344 6.389228942829947 86.87279507160964 0 0 0
5184 1 29.687440633833937 5.995988317557951 84.85219864846502 0 0 0
5151 1 31.598495814354916 32.947776473904824 85.17065057278471 0 -1 0
5178 1 26.97157023053741 6.271466529261805 82.69660537214327 0 0 0
5405 1 29.464861096823377 0.23084259303896065 86.54017442545101 0 0 0
5186 1 2.424873877884066 10.329570415244675 82.70523187114348 0 0 0
5187 1 2.5180200556091954 8.20281984214647 85.35910451318169 0 0 0
5189 1 4.26264213886702 8.06065137531444 82.97401516726532 0 0 0
5192 1 4.778658578488094 10.247906379179387 85.27146335056516 0 0 0
5219 1 2.339080603118278 12.08151993790466 84.81008040752204 0 0 0
5221 1 4.222634671635008 12.20776019619696 83.01751977690242 0 0 0
5217 1 0.6485792395548409 12.323471383464188 82.8214355813082 0 0 0
5185 1 0.29173725198119205 8.210975272475475 82.87227927293807 0 0 0
5188 1 0.4274132596988424 10.157618903647688 84.90690528548097 0 0 0
5445 1 4.881201769312743 7.947882250003581 87.34741915680993 0 0 0
5473 1 0.5696553498912658 12.184134596609029 87.24712622311756 0 0 0
5441 1 0.5753983714559494 8.246011681040198 87.48783273683493 0 0 0
5442 1 2.5634984382974157 10.300592934806474 86.82214799734149 0 0 0
5477 1 4.4104918189168885 12.24227246003054 86.9442495933309 0 0 0
4971 1 11.109059328366293 12.558770464080185 80.8784757635953 0 0 0
4939 1 11.164039387265083 8.259920756326231 80.84609261229625 0 0 0
4944 1 13.328268692739368 10.722813542489588 80.94971979109057 0 0 0
5191 1 6.719900094626541 8.132224290262222 85.14688137066182 0 0 0
5223 1 6.460132541404491 12.281155212566151 84.81363843659256 0 0 0
5190 1 6.2764906940346545 9.992907649783714 82.92841289794426 0 0 0
5193 1 9.082557569661256 8.506597429469108 83.18952775060244 0 0 0
5194 1 10.963565255403905 10.587701190761177 82.89611570784304 0 0 0
5195 1 10.791991480636392 8.110929324142019 84.96660298881653 0 0 0
5196 1 8.621135095647878 10.090561068600332 85.19057174104617 0 0 0
5225 1 8.618848515078124 12.030142951621562 83.11950402766571 0 0 0
5227 1 10.876367333613109 12.140115386443911 85.19633039287467 0 0 0
5481 1 8.746252763142166 12.338978334471 86.74964736951536 0 0 0
5229 1 13.228958563853176 12.283609167599693 83.3170330803738 0 0 0
5485 1 12.995828788184372 12.19916342390065 87.08827808573977 0 0 0
5446 1 6.888098408234978 10.171142499552385 87.2285378065738 0 0 0
5449 1 8.711823326396507 7.991269814248473 87.13825697266287 0 0 0
5450 1 10.951801499939632 10.089798799534316 87.25991089561606 0 0 0
4948 1 17.049665106780488 10.239682938508134 80.53395894524354 0 0 0
5197 1 12.787770562376462 8.487516938148639 83.1048521353107 0 0 0
5200 1 13.20456157917904 10.153405755062744 85.48009405820822 0 0 0
4947 1 19.251453785081388 8.415912788782666 81.03033496053813 0 0 0
4975 1 15.324522361574301 12.522501353077361 81.18331848354653 0 0 0
4943 1 14.553941266369963 8.26763719715897 80.54409215553952 0 0 0
5198 1 14.989476404624078 10.054731667355846 83.1915253102275 0 0 0
5199 1 14.610280608124812 8.256009093584904 85.23177883366509 0 0 0
5201 1 16.636186436872993 8.102677213865501 83.29916562257465 0 0 0
5204 1 17.629875647555906 10.700514036647466 84.96706349702482 0 0 0
5231 1 15.231672836385625 12.649064589747532 85.07177745087391 0 0 0
5233 1 17.010419276739906 12.995806831942483 83.17491246235058 0 0 0
5235 1 19.328545433295975 12.97051848175206 84.82467909662036 0 0 0
5202 1 18.856837208811893 10.350431132096608 82.74120991467055 0 0 0
5457 1 17.0061912606216 8.20159506375753 86.62840209134983 0 0 0
5203 1 18.915436794953823 8.442738147447866 84.63188716082126 0 0 0
5458 1 19.326191122937466 10.357996431727729 87.19178664823912 0 0 0
5453 1 12.829932781382942 8.17451891268846 87.85110903321346 0 0 0
5489 1 17.385429324322114 12.55652675873916 86.73002620991677 0 0 0
5454 1 15.282902381626254 10.5147228125027 87.07607879047323 0 0 0
5205 1 21.087752073310416 7.915041402565076 82.94765229499787 0 0 0
5206 1 22.637204047815494 10.485878248462459 82.91741423165884 0 0 0
5207 1 23.013515242734226 8.206235480154659 84.97527754335769 0 0 0
5208 1 20.81341824923101 10.553972697127215 84.67903621766631 0 0 0
5209 1 24.95749532181043 8.564165231219736 82.73430544446386 0 0 0
5212 1 24.75285364576595 10.458915441118423 84.71180277216841 0 0 0
5237 1 21.128307991238977 12.803454596925231 82.97480247871972 0 0 0
5239 1 23.518391910643277 12.738973556618134 84.94166657459708 0 0 0
5241 1 25.22471948794765 12.276374685945832 82.62603348047244 0 0 0
5497 1 25.040148532402295 12.037426555915689 87.01148910729798 0 0 0
5493 1 21.176649512174066 12.687622944621697 86.55687979074463 0 0 0
5465 1 24.95864217664896 7.99273353582088 86.8355949688908 0 0 0
4960 1 29.354774011087713 10.748843431525229 80.76871705504135 0 0 0
5210 1 27.410306666143345 10.775064149275499 82.94069630577816 0 0 0
5211 1 27.195681106103688 8.241073089641135 85.09392137023325 0 0 0
5213 1 29.01745929181786 8.228810901525987 82.9211686274284 0 0 0
5214 1 31.514646498985726 10.738328632523693 82.57560960889764 0 0 0
5215 1 31.59566795249164 8.383955264473379 84.82514100281371 0 0 0
5216 1 29.722012573683358 10.262769829661094 85.12006489756557 0 0 0
5243 1 27.249230323094462 12.55818799302078 85.23029982424875 0 0 0
5245 1 29.343290738174165 12.462419704244768 83.28613358732709 0 0 0
5247 1 31.936747012849175 12.512063954937803 84.90063447983177 0 0 0
5469 1 29.693567640210496 8.031974514210175 86.96269043912342 0 0 0
5501 1 29.03131309458226 12.162627383343231 87.3620887663929 0 0 0
5466 1 26.936998738677197 10.253996122431886 87.05561579654592 0 0 0
5470 1 31.70672771650624 10.386065018230205 86.83691735367597 0 0 0
4968 1 4.052461648006653 14.14770945376526 81.03767532725482 0 0 0
5000 1 4.633342698526037 18.700192829420725 81.05522246284406 0 0 0
4996 1 0.5704840968834374 18.553717901627095 80.49296589251213 0 0 0
5218 1 2.4415992621361595 14.459160565148931 83.12272979259527 0 0 0
5224 1 4.384050854320817 14.390543196752791 84.99228173879362 0 0 0
5250 1 2.1979586950280456 18.510769537009562 83.02766947209291 0 0 0
5251 1 2.387101064341204 16.621249541212887 84.65513677649594 0 0 0
5253 1 4.405071583006414 16.318634419012973 82.82975782737905 0 0 0
5256 1 4.414098287866968 18.646775613267504 84.52581210658678 0 0 0
5220 1 0.6048981965853583 14.2739292354036 85.004061856215 0 0 0
5249 1 0.3577378056619057 16.37056371025008 82.76899846186691 0 0 0
5509 1 4.227669304952195 16.22560878346475 86.95749031351808 0 0 0
5474 1 2.498636760690495 14.169447930776192 87.04611054475265 0 0 0
5506 1 2.2979374466013103 18.241482797814957 86.7592536084305 0 0 0
5505 1 0.5004197187013176 16.21676974680989 87.40198904264875 0 0 0
5003 1 10.717048178491721 16.36130295414435 81.10096860063143 0 0 0
4976 1 13.40027797382763 14.632446446537285 81.24571635532624 0 0 0
5254 1 6.377027780601296 18.669556193786004 82.82052608310569 0 0 0
5255 1 6.449056545775784 16.33868254112685 84.9428625743329 0 0 0
5222 1 6.649338421184149 14.368307194721096 83.05028763069882 0 0 0
5226 1 10.780832802700257 14.274049296900646 82.92724195363859 0 0 0
5228 1 8.821787474023369 14.565449321604882 85.02750326950611 0 0 0
5257 1 8.535144480767576 16.686727150638788 82.47690328975422 0 0 0
5258 1 10.525345227474103 18.77443985029832 83.0780337162924 0 0 0
5259 1 10.757722017402237 16.230854089529288 85.20482627684221 0 0 0
5260 1 8.665628724479673 18.38126045436612 85.02453049036909 0 0 0
5478 1 6.718635446237913 14.387509305550974 87.10120270187385 0 0 0
5513 1 8.340394650149348 16.22886274351607 86.93079811373774 0 0 0
5264 1 12.927882899562718 18.85203641879258 84.76916186861216 0 0 0
5482 1 10.822663428936956 14.161333912631811 87.1642674107226 0 0 0
5232 1 12.77191788611964 14.351153706029708 84.9890274775906 0 0 0
5517 1 12.81801128672854 16.739216819738527 86.97352333601066 0 0 0
5261 1 12.836173043715414 16.502869132666735 83.1945271581307 0 0 0
5012 1 17.097276057806113 18.654292171153383 80.40261019001778 0 0 0
5011 1 19.2575932442846 16.894889370597678 80.92166131353575 0 0 0
5007 1 15.198510152479164 16.523853823736335 80.5616618472772 0 0 0
4980 1 17.24703886456608 14.700685694878086 80.5299195265455 0 0 0
5230 1 14.974788555556474 14.353153173198939 83.10035443836023 0 0 0
5234 1 19.422709170046154 14.550347112845389 82.43489644007826 0 0 0
5236 1 17.17598882270126 14.761826726728753 85.26291055662118 0 0 0
5262 1 15.312296412901958 18.363545411931664 82.70622384062403 0 0 0
5263 1 15.108643567203321 16.27731086467055 85.01880817897215 0 0 0
5265 1 17.483105780571186 16.32858446086695 82.81363856588739 0 0 0
5266 1 19.505775203130014 18.69839904082166 82.68782367781628 0 0 0
5267 1 19.491746791574588 16.81498891042689 84.69902962537527 0 0 0
5268 1 16.946214067032287 18.42362159779458 84.53114919774768 0 0 0
5490 1 19.024524701778653 14.832898207893942 87.29460802839938 0 0 0
5522 1 19.363066520417366 18.680188975206047 86.9388823300147 0 0 0
5518 1 14.890542744799813 18.411511422657487 87.00415344173203 0 0 0
5486 1 15.330093063775545 14.534151365279346 87.02120022679503 0 0 0
5521 1 17.091009510626147 16.89895794311026 87.03673090391169 0 0 0
4988 1 25.280208869149845 14.572707959379732 80.37052435165762 0 0 0
5020 1 25.181951340262007 18.518330682588598 80.51087450156676 0 0 0
5238 1 23.422601575243338 14.534163115602595 82.60888939538039 0 0 0
5240 1 21.50956116334621 15.25502544630668 85.24959242531135 0 0 0
5244 1 25.652225808911396 14.436447680118517 84.9537530262784 0 0 0
5269 1 21.379428028125997 16.592572350711713 82.75312827656026 0 0 0
5270 1 23.413325243093816 18.500402243691227 82.74367953071399 0 0 0
5271 1 23.695096451162506 16.93798569313912 84.86137425914316 0 0 0
5272 1 21.45603377501604 18.99453967225393 84.93560087949545 0 0 0
5273 1 25.730490059263623 17.048462893801272 82.99837703110727 0 0 0
5276 1 25.891083528584492 19.007742833662714 85.17748650795352 0 0 0
5494 1 23.53561183201473 14.918099558981229 86.8191914167688 0 0 0
5526 1 23.22711102215556 18.675539170670547 86.82723303380996 0 0 0
5529 1 25.76133895212447 16.50772966264977 87.33072604719179 0 0 0
5252 1 -0.11327633941916786 18.198362308735437 85.1209255520421 0 0 0
5242 1 27.57387803693809 14.593697150256368 82.78075569951518 0 0 0
5246 1 31.6357626295156 14.24934333144446 82.93771668173083 0 0 0
5248 1 29.85468594259539 14.562247325084378 85.09172948148593 0 0 0
5274 1 27.93230104952627 18.52925320513777 82.76767167991116 0 0 0
5275 1 27.841418893363354 16.634813875933585 84.97633372227705 0 0 0
5277 1 29.557503967520365 16.575220916746524 82.9523312543089 0 0 0
5278 1 31.985807568811527 18.44429247645471 82.91205110048331 0 0 0
5279 1 31.812574509059395 16.332639384107605 85.61455712924034 0 0 0
5280 1 29.811782679990387 18.632282925055893 85.00447595748992 0 0 0
5533 1 29.52299486046614 16.721798180753748 87.08984243643017 0 0 0
5502 1 31.41748271951548 14.086940969575402 87.48505039765197 0 0 0
5534 1 31.702182160850008 18.58392616905922 87.48619219083187 0 0 0
5283 1 2.395845197672825 20.425197384169255 84.99769228283905 0 0 0
5282 1 2.4158480081869973 22.585546357067667 82.82958042784756 0 0 0
5285 1 4.772760329736986 20.97300619462985 82.99797537323738 0 0 0
5288 1 4.331731211487831 22.984635587416562 85.01320855866759 0 0 0
5315 1 2.052639035818539 24.66052315218095 84.93289062349325 0 0 0
5317 1 4.512074735527557 24.487007965844864 82.95234528210952 0 0 0
5284 1 0.47741482330065144 22.49761768832701 84.97567571010006 0 0 0
5313 1 0.06772636752685092 25.2034000976318 82.83286363778252 0 0 0
5281 1 0.5590427873654429 20.504081401427243 83.14721920664323 0 0 0
5538 1 2.5753132419352354 22.7305573387458 87.03497247635761 0 0 0
5573 1 4.6392108396266964 25.248462897804146 86.72381657777363 0 0 0
5319 1 6.590043999496387 25.142653492862145 84.96685926379995 0 0 0
5537 1 0.4176613101849257 20.48997506582385 86.98284470556071 0 0 0
5569 1 -0.1709445808085598 25.20453784877476 87.09476784543429 0 0 0
5541 1 4.126146063089701 20.58572090118953 87.41034879578905 0 0 0
5036 1 8.423130976241353 23.0158496716074 80.70340196059806 0 0 0
5063 1 6.148137963343625 24.98471186857564 80.56963606741414 0 0 0
5040 1 12.866493304430168 22.552063512794025 80.4498570198411 0 0 0
5286 1 6.866447796614258 22.796746791851493 82.8501023485623 0 0 0
5542 1 6.5307865706898465 22.891230539180402 86.86876674894143 0 0 0
5287 1 6.447644869866134 20.76111696014795 85.04079409290856 0 0 0
5289 1 8.558873204363168 20.690235639427424 83.14782321207153 0 0 0
5290 1 10.595344870219403 22.777784212885805 82.99454687203301 0 0 0
5291 1 10.595215041591933 20.427197404517685 85.26271947316265 0 0 0
5292 1 8.627654362160971 22.508557585203878 85.33159929801516 0 0 0
5321 1 8.511520736016442 24.892497304290227 83.06221959816298 0 0 0
5323 1 10.556388528820595 24.587428055056503 85.11830325614756 0 0 0
5546 1 10.934286890211968 22.51233601852869 87.07067472972231 0 0 0
5577 1 8.872644276780848 24.57627292307809 87.51138820823982 0 0 0
5581 1 12.879727214218525 24.81650361422804 86.6455876604785 0 0 0
5296 1 12.779432244922672 22.70521134405578 84.87816511220637 0 0 0
5325 1 12.764290354701851 24.469643048785866 82.77948504963031 0 0 0
5293 1 13.075640660651034 20.64543907994116 82.70538246101486 0 0 0
5549 1 13.163960763258803 20.73674305519546 86.5646950467107 0 0 0
5043 1 18.860211749061957 20.95561373810689 80.49793944911869 0 0 0
5039 1 14.76449166042342 20.585707009085603 80.74594947583488 0 0 0
5294 1 14.987131953014723 22.74610359378742 82.55775236374355 0 0 0
5295 1 15.176393271788402 20.756975096802147 84.61671672227108 0 0 0
5297 1 17.033524876751063 21.02734273310201 82.46853395296841 0 0 0
5299 1 19.045369918515075 20.732337097300157 84.79551094380791 0 0 0
5300 1 17.186940944163112 22.994051202879035 84.58544321070444 0 0 0
5327 1 14.758653134412825 24.995115546266526 84.70655829211304 0 0 0
5329 1 16.88426706270872 24.953085892918285 82.52226099444711 0 0 0
5331 1 19.430252600092444 24.53010496745395 85.0258593816533 0 0 0
5298 1 19.081817820534326 22.74832994168341 82.55880067447696 0 0 0
5585 1 16.91940085369655 24.91553770284149 86.84166556532581 0 0 0
5553 1 17.245568717674594 20.971248504063922 86.88432008844013 0 0 0
5301 1 21.402805030476472 20.76978452915842 82.87278104511124 0 0 0
5302 1 23.48139433050786 22.720375615394033 82.68894228940854 0 0 0
5303 1 23.97157890450776 21.222886199502295 85.16602321007707 0 0 0
5304 1 21.38902206303569 22.61562326387734 84.79844705736825 0 0 0
5305 1 25.471780690716255 20.708416812994187 82.80171888517623 0 0 0
5308 1 25.873064740464486 23.205324137414014 84.96968068316652 0 0 0
5333 1 21.058899269562126 24.591419755923482 82.77615756938897 0 0 0
5335 1 23.390635419131023 24.536615827783457 84.81955174136384 0 0 0
5337 1 25.268440964293145 24.682044559856696 82.64059493357556 0 0 0
5558 1 23.40693179943225 23.138374792411444 87.0255107472098 0 0 0
5561 1 25.468170172042157 20.64629610806441 87.45193724600583 0 0 0
5589 1 21.257886862856754 24.756587379474283 87.02337258530254 0 0 0
5593 1 25.688457805668975 24.948269619428654 87.05284507275806 0 0 0
5083 1 27.68063643606562 24.73249434610967 80.69008500536799 0 0 0
5307 1 27.51003689860823 20.806435346954345 84.93116943998571 0 0 0
5306 1 27.460176634189477 22.912605016013966 83.03253239743377 0 0 0
5309 1 29.60190938128027 20.708368253314838 82.8861473416223 0 0 0
5310 1 31.694839094422107 22.777613151419757 82.81454455247052 0 0 0
5311 1 31.49941834335135 20.624054524512243 84.86251309613249 0 0 0
5312 1 29.44845066841106 22.81339681677654 84.73147322103792 0 0 0
5339 1 27.291497223570087 25.345520460276237 84.84652127636502 0 0 0
5341 1 29.273190587056565 24.915421725310917 82.9498701094915 0 0 0
5343 1 31.273219322514986 24.713280971785203 85.07086141032761 0 0 0
5565 1 29.333264593357672 20.539157199341698 86.96482739477979 0 0 0
5562 1 27.26572953266029 22.796597570046455 87.10396297551699 0 0 0
5060 1 0.44372051123323564 26.954557553551 80.70416054536095 0 0 0
5125 1 4.15631964464383 32.87192507880593 83.22656415185939 0 -1 0
5121 1 0.4426414227099235 0.047942568161634246 82.66676790016709 0 0 0
5314 1 2.6856395801506814 26.551976601606256 82.48653204381493 0 0 0
5320 1 4.132434222427128 27.137459106687267 84.74410441437834 0 0 0
5316 1 32.975082272157515 27.024488596151667 84.78058651817386 -1 0 0
5346 1 1.973685650907022 30.74710158962961 82.77673492697237 0 0 0
5347 1 2.259850243411299 29.09645482548529 85.00412723831906 0 0 0
5349 1 4.1122090769901725 29.000574745210915 82.39853572891307 0 0 0
5352 1 4.37478579197747 30.819269076009594 85.11920760586806 0 0 0
5348 1 0.41950914256921107 30.987833490010743 85.02683312237184 0 0 0
5345 1 0.5241717654105517 28.737622752942304 82.89716059279628 0 0 0
5605 1 4.869819814148453 28.837984941267575 87.0963531948848 0 0 0
5377 1 0.48438259572153475 33.00954609627403 87.51169130830502 0 -1 0
5602 1 2.305623331180593 30.97490256208605 86.83066595871094 0 0 0
5318 1 6.353917887659342 26.69628653481316 82.85915821793292 0 0 0
5381 1 4.960816482587611 32.954490738340276 87.02138188682522 0 -1 0
4871 1 6.22855904894755 0.1493508177982957 80.88251483524203 0 0 0
4875 1 10.8191433074951 0.002069101628462004 80.36365811547844 0 0 0
5100 1 8.397385535235301 30.759654556722175 80.58255445939636 0 0 0
5072 1 12.786626667013167 26.78579668757777 80.6465808354577 0 0 0
5129 1 8.421243340038739 32.95934322641953 82.71627801121642 0 -1 0
5131 1 10.619332439949194 -0.16457031421042767 84.86926877676684 0 0 0
5099 1 10.789595605185518 28.95572916350324 80.76441104180188 0 0 0
5324 1 8.506230686028145 27.054268881051787 85.01006601908604 0 0 0
5578 1 10.406693271107773 26.76820876376633 86.69395178750611 0 0 0
5350 1 6.5842111364781974 31.1892678349551 83.08898371402738 0 0 0
5322 1 11.072676569266807 26.828112478252656 82.82432391779976 0 0 0
5351 1 6.451879140005872 28.975617373346545 84.91112159359021 0 0 0
5353 1 8.71356596725357 29.023138945761044 82.6849830391875 0 0 0
5354 1 10.589967039129073 31.17649827941848 82.30156781405505 0 0 0
5355 1 10.669320370949864 28.848669283298456 85.00115892654243 0 0 0
5356 1 8.694151151812672 31.153044502760718 84.57062344268826 0 0 0
5574 1 6.840656419638507 26.556782401219525 87.35456844251603 0 0 0
5328 1 12.645829743064306 27.108469923745307 84.76568211298677 0 0 0
5360 1 12.92489780393777 31.33064249084736 84.8170613498719 0 0 0
5613 1 12.750854494934382 29.355470516396355 86.73846654901953 0 0 0
4879 1 15.13199038184683 -0.09114174096515455 80.26260126973925 0 0 0
5133 1 12.601778048646318 32.883263354258595 82.48394419774485 0 -1 0
5135 1 15.303724663308964 32.974435754063734 85.33524839606135 0 -1 0
5357 1 12.769822591754291 29.42247484021633 82.68927642801512 0 0 0
5137 1 17.432227497883297 -0.03675145549089143 83.1184341700074 0 0 0
5332 1 16.832358065088247 27.0113332376305 85.03795812926086 0 0 0
5586 1 19.41083679834291 26.60600051653763 86.79507950767193 0 0 0
5326 1 14.68285287445851 27.169369264281585 82.877609210017 0 0 0
5330 1 18.930493995800077 26.904490795679735 82.7694948765942 0 0 0
5358 1 14.85598967573044 31.170600754923885 82.4335720823672 0 0 0
5359 1 15.112893090570557 29.3523526649133 84.74330555044308 0 0 0
5361 1 16.818193214507087 29.131261917048423 82.78493573307988 0 0 0
5364 1 17.278061697936693 30.944335122731218 84.94470219779004 0 0 0
5362 1 19.0652490229032 31.155035855382163 82.9303744031956 0 0 0
5363 1 19.119439340051287 29.12451388726154 84.75826387235236 0 0 0
5618 1 19.329992495433608 31.163554242720238 87.35351514612867 0 0 0
5582 1 14.603667632390312 27.22803828436357 86.67978590446032 0 0 0
5080 1 20.715304195606326 26.66615865750206 80.63759057971804 0 0 0
5143 1 22.93238863360868 0.3658563042979895 85.32605864627155 0 0 0
5145 1 25.480535306532037 0.4639058841739059 82.53864582148984 0 0 0
5141 1 21.20878516992866 0.168042104993591 82.52868814221912 0 0 0
5401 1 25.224689308152442 0.06344368023779477 87.17007216861967 0 0 0
5334 1 22.572795776415155 26.958707394671393 82.6729013807344 0 0 0
5336 1 21.45985660886593 26.560307977855757 85.08854759008346 0 0 0
5340 1 25.029681061554406 26.87900674405608 84.70626557767305 0 0 0
5365 1 21.059281147104073 29.149890631709965 82.90829376790464 0 0 0
5366 1 23.21308387857016 31.866925264168124 82.93200579223833 0 0 0
5367 1 23.39359098688391 29.53243429329891 85.18887773734028 0 0 0
5368 1 21.445362652021124 31.186913977567322 84.79601292123016 0 0 0
5369 1 24.75128173143429 29.033264906931514 82.95615108757201 0 0 0
5372 1 24.9247707456484 31.697229297227565 84.76245303454925 0 0 0
5625 1 24.921207047487446 29.395880833728008 87.22249752655516 0 0 0
5621 1 21.04772973787057 28.981563546371813 86.92018745751217 0 0 0
5590 1 23.487419714858188 27.15884810253187 87.20450123594911 0 0 0
5622 1 23.09802295133141 31.49953656489272 87.33101175308641 0 0 0
5147 1 27.135931346172004 0.1392063227289951 85.174378255377 0 0 0
5149 1 29.54046886656822 -0.19635228528918672 83.2333842104824 0 0 0
5338 1 27.270066737037567 27.254944477519157 82.88855449027504 0 0 0
5342 1 30.939913039849884 27.008407628021775 82.80136615115812 0 0 0
5344 1 29.306913716425008 27.392909881777246 85.02771382947171 0 0 0
5370 1 26.85370053433951 31.639750516408572 82.95389241842818 0 0 0
5371 1 26.605613597432516 29.697907688496965 85.01897854210873 0 0 0
5373 1 29.274117256612545 29.350471069993112 83.09876848296294 0 0 0
5374 1 31.92423282732161 30.8208953118551 83.08706503105917 0 0 0
5375 1 31.34753176667679 29.408459246990468 85.1069413873297 0 0 0
5376 1 29.359605209469116 31.03568528972831 84.89896885797037 0 0 0
5594 1 26.953645325408303 26.92009155805029 86.78559831811002 0 0 0
5630 1 31.144282065685744 31.144517402660323 87.30109788537683 0 0 0
5409 1 0.5836449088391601 3.791004823011997 87.09532148113414 0 0 0
5382 1 7.005905613404934 1.704080759009018 87.27866368188772 0 0 0
5384 1 4.8655719493709695 1.8284573680211582 89.46766875680512 0 0 0
5411 1 2.811887027792372 3.858350381567294 89.33798404369931 0 0 0
5416 1 4.523777491977605 5.968871806355289 89.55160127665839 0 0 0
5634 1 2.5911732902878546 1.8522081738701344 91.29902648868848 0 0 0
5669 1 4.626404394541907 4.127088320004897 91.43337365408821 0 0 0
5412 1 0.7397596080610854 5.862969694085688 88.97375021785221 0 0 0
5380 1 0.7707204480985896 2.253403646387064 89.32060867348274 0 0 0
5636 1 0.41322166378202935 2.1334430544635175 93.281962285127 0 0 0
5666 1 2.4000157601009504 6.162262529095802 91.44014214111961 0 0 0
5668 1 0.1956934243102453 5.94364340291446 93.20193655991196 0 0 0
5637 1 4.838838854841418 -0.15063283501588445 91.36384320477976 0 0 0
5672 1 5.1273440811058055 6.278109421284926 93.09527949793167 0 0 0
5415 1 6.770639388093647 3.896352214863831 89.54715293360019 0 0 0
5665 1 0.13629108235573711 4.122492898475533 91.15802135241472 0 0 0
5667 1 2.330337975839783 3.998214124944672 93.12509147950405 0 0 0
5385 1 8.665820257313262 32.970743268289105 87.51929761156174 0 -1 0
5386 1 10.880185761300192 1.5797777050443331 87.02026469232138 0 0 0
5417 1 9.103013992305094 3.7255424196010862 86.88259068027682 0 0 0
5418 1 10.857516780133192 6.343363656205222 87.28907578000373 0 0 0
5670 1 6.823876734241506 6.215642551858988 91.01681227090761 0 0 0
5638 1 6.845888466338864 1.5211202251980502 91.05815114758792 0 0 0
5388 1 8.852128369868288 2.135521106543111 89.26668234087047 0 0 0
5419 1 11.147416504705722 4.246514133467099 89.205919584518 0 0 0
5642 1 10.93325002951594 1.6985802062354625 91.11982807717405 0 0 0
5673 1 8.992949142407715 3.9593966657412714 91.1393990424041 0 0 0
5420 1 8.98519957114399 6.03514479967175 89.21563591022975 0 0 0
5677 1 12.925483866240915 4.197783986624349 91.28099461438174 0 0 0
5643 1 10.818487134151347 32.9726700959448 93.05448255737494 0 -1 0
5424 1 13.130890907104115 5.765666198683932 89.16723552843342 0 0 0
5674 1 10.962413164442847 6.21089998804631 91.0182434246677 0 0 0
5676 1 8.9236354996312 6.0929494642570505 92.91951072288136 0 0 0
5644 1 8.678821546883414 1.7960875519745052 93.16602634497576 0 0 0
5383 1 6.699042555286285 32.85177265713816 89.41502235977548 0 -1 0
5671 1 6.8736916602415254 4.1654573540050235 92.8840406517143 0 0 0
5392 1 13.135216919709581 2.119923219644879 89.27562364212041 0 0 0
5648 1 12.954885733058337 1.524314016732695 93.14635684061618 0 0 0
5396 1 17.295058598247792 1.8871650794599606 89.12221472028624 0 0 0
5423 1 15.66303693358893 3.936133484814346 88.97835978245404 0 0 0
5646 1 15.19933739690558 1.9430973826501552 91.31911397799718 0 0 0
5650 1 19.035713451784776 1.819561813960083 91.19179500809675 0 0 0
5681 1 17.518181562779052 4.331098440820864 90.71014656906785 0 0 0
5682 1 19.467133807741543 6.255232688412559 90.99973489417911 0 0 0
5683 1 19.223586943987204 3.826945359281821 93.60259466989848 0 0 0
5427 1 19.589100099835125 4.220275191648081 89.36196651321492 0 0 0
5428 1 17.24402099349536 6.3421109293747975 88.90075140521732 0 0 0
5679 1 15.017356670727011 4.00406322166568 93.08756779386339 0 0 0
5652 1 16.837807654433274 1.9288671767421963 93.14495926796448 0 0 0
5391 1 15.137305421045792 33.000139557165845 88.7956605943325 0 -1 0
5678 1 15.02038213834885 6.023341241201579 91.11610972628309 0 0 0
5680 1 13.02664828127849 6.377488773195502 93.28525293236592 0 0 0
5398 1 23.289946122669267 2.2287682037220615 86.98894004889455 0 0 0
5397 1 21.089304638405192 0.14365235785853037 87.33641725411113 0 0 0
5400 1 21.275008411323974 2.080452881530214 89.17676658387414 0 0 0
5404 1 25.375258951743827 2.6303924304832607 89.02230801715459 0 0 0
5431 1 23.008648130986366 4.384886702575215 89.05218420515413 0 0 0
5432 1 21.147338602812095 6.250490585053283 88.77806431445225 0 0 0
5436 1 25.549659277887137 6.1928837519161215 88.98323190586255 0 0 0
5654 1 23.45857256541556 2.438751007320039 91.02481743373492 0 0 0
5685 1 21.272078289268627 4.14831363228678 91.47628722049875 0 0 0
5686 1 23.35052682807217 5.870016768726405 91.35723353149193 0 0 0
5689 1 25.547716993103503 3.935994420923774 91.23899804326841 0 0 0
5692 1 25.215406866540295 5.943133102742978 93.59237520699541 0 0 0
5687 1 22.82406824977555 3.883666052041925 93.5342881529519 0 0 0
5660 1 25.001309038464743 2.0786241977723914 93.2461235179326 0 0 0
5656 1 20.934045317799345 1.6691473960036751 93.22622903897481 0 0 0
5655 1 23.407410027978916 -0.03964928537229654 93.5300314458306 0 0 0
5399 1 23.13747370057002 0.15152945152855485 89.29560044532178 0 0 0
5688 1 21.184298502588312 6.331148712304361 93.23418078559165 0 0 0
5657 1 25.280775439367584 -0.1483899159535349 91.3376333131343 0 0 0
5402 1 27.40973225134118 2.07193683428005 86.99318089833692 0 0 0
5406 1 31.633581871529515 1.6593177639387886 87.06875188435136 0 0 0
5658 1 27.094751402722483 2.11521413311454 91.29768505094606 0 0 0
5408 1 29.3774579349569 1.7648942330213915 89.20089508307053 0 0 0
5435 1 27.72913967516693 4.456414998169548 88.91382232414584 0 0 0
5439 1 31.69237087784757 4.07104251180764 89.13241043023235 0 0 0
5440 1 29.64849072480217 6.236945803536392 89.23863391802328 0 0 0
5662 1 31.212570920414905 1.8703026852109197 91.12466004317717 0 0 0
5693 1 29.511140960165932 4.1877105326945685 91.05839110252504 0 0 0
5694 1 31.55700006881551 5.996939976803538 91.20306362792196 0 0 0
5664 1 29.329797473615166 2.0379525573411534 93.25402269838172 0 0 0
5696 1 29.426556265085168 6.02665030306791 93.52746228778726 0 0 0
5695 1 31.56303312548796 3.859613240122043 93.44018607408778 0 0 0
5663 1 31.66070071817873 0.1438569874662403 93.21572775636679 0 0 0
5659 1 27.535259595993242 0.017841731444358133 93.25860527166138 0 0 0
5443 1 2.783000926555774 8.49481173409049 89.23320756686489 0 0 0
5448 1 4.588269190214317 10.381511925108326 88.7494477851486 0 0 0
5475 1 2.4038567977882614 11.978405890897058 89.34991627929521 0 0 0
5698 1 2.8970420029683055 10.125810649129178 91.57740775562056 0 0 0
5701 1 4.674438048893544 8.229533019174047 91.23826863149765 0 0 0
5733 1 4.517912500533517 12.184497613129974 91.28416183084595 0 0 0
5444 1 0.1999061970945541 10.50792593523665 89.02172611803718 0 0 0
5697 1 0.6543246824004827 8.211474911254015 91.24334256223895 0 0 0
5729 1 0.741622660762945 11.968828127765851 91.1630547048499 0 0 0
5704 1 4.885892422909484 10.155087098688155 93.41145558399062 0 0 0
5699 1 2.826284401060726 8.162070710779096 93.33607705143089 0 0 0
5731 1 2.850484035812422 12.324116569291563 93.69152358429575 0 0 0
5447 1 6.811774467047316 8.22355191132633 89.57130395398727 0 0 0
5703 1 7.010312530541522 8.185501307576764 93.14139181809428 0 0 0
5700 1 0.5858304198776318 9.954592138559406 93.23179915180052 0 0 0
5479 1 6.78661944533986 12.395425454445904 89.00773494916982 0 0 0
5702 1 6.781971373685147 10.38490084659795 91.33806831255461 0 0 0
5451 1 10.782377884432606 8.499594692807014 89.36921319285922 0 0 0
5452 1 8.808080295417556 10.400501943404516 89.19128667234394 0 0 0
5483 1 10.692141458564198 11.83708255230728 89.34255259960314 0 0 0
5705 1 9.11484095859497 8.60667700315921 91.50010197944755 0 0 0
5706 1 11.326586716346677 10.38458561208021 91.38104192674751 0 0 0
5737 1 8.776457947381326 12.008804720537437 91.58823207613044 0 0 0
5707 1 10.909065053620232 8.2032546299101 93.30904297888155 0 0 0
5708 1 8.645267859525301 10.166567035143613 93.4068872339457 0 0 0
5735 1 6.503248517704203 12.211543119456397 93.55596646540435 0 0 0
5456 1 13.191312601199453 10.475740107218472 89.24389138940573 0 0 0
5709 1 12.932594024688154 8.3075209059525 91.19505617088802 0 0 0
5741 1 13.031219697238283 12.712556616381521 91.24799057701055 0 0 0
5712 1 13.192412367601435 10.586171683810425 93.4559882420566 0 0 0
5739 1 10.849949812900688 12.500866229935758 93.23467241727953 0 0 0
5684 1 17.233500573764488 6.184158639882512 93.27558452443999 0 0 0
5455 1 15.230832883968265 8.04223932920344 89.27090006373236 0 0 0
5459 1 19.025332361384116 8.499025639144719 89.12847704426744 0 0 0
5460 1 17.049513449518578 10.52691725003999 89.11324891847957 0 0 0
5487 1 15.096137473634492 12.566434649233221 89.16553279725082 0 0 0
5710 1 15.031422137792882 10.33457148571759 91.21435542719108 0 0 0
5713 1 16.945134186640477 8.0290776493133 91.30725287452037 0 0 0
5745 1 17.281868868398355 12.270555312672268 91.22608349304484 0 0 0
5491 1 19.273879693175925 12.371371753995218 89.11563691222892 0 0 0
5716 1 17.22823066144376 10.086656703859488 93.00804024422956 0 0 0
5747 1 19.66251859236751 12.466352966606488 93.45588288813326 0 0 0
5743 1 15.291218637034232 11.993548620035387 93.30954677950236 0 0 0
5714 1 19.016724053354142 10.30518701819651 91.20710328497525 0 0 0
5711 1 15.105958193598488 7.925976148096917 93.36349178401626 0 0 0
5715 1 19.09343782587134 8.125258805392715 93.33038589917805 0 0 0
5462 1 22.887709167092908 10.463953762620195 86.50540493369219 0 0 0
5461 1 21.326341412384163 8.238228082460369 86.8308656250158 0 0 0
5463 1 23.178231809848164 8.011498097830017 88.98636463260743 0 0 0
5464 1 21.51103480636813 10.27537504560313 88.89125852509972 0 0 0
5495 1 23.0986926453442 12.441576777991381 88.99693903233027 0 0 0
5717 1 21.191436973478293 8.271868949728724 91.20251596078577 0 0 0
5718 1 23.353083812693917 10.461934737988269 91.11866912367374 0 0 0
5721 1 25.39012467722446 8.263897388791952 91.01404943157797 0 0 0
5749 1 21.06510260956441 12.310920943128867 91.1912821031147 0 0 0
5753 1 25.375203067352 12.298832765480379 91.3807920664603 0 0 0
5468 1 24.772981710485038 10.245008068951652 88.70942224292 0 0 0
5719 1 23.405337916020326 8.123351446783705 93.15284166935238 0 0 0
5720 1 21.32017205316609 10.266204561712016 93.3717939352821 0 0 0
5751 1 23.069232974519434 12.304964307138386 93.45260443752542 0 0 0
5724 1 25.20578483017365 10.19781950262132 93.28153195327043 0 0 0
5690 1 27.081723800099386 6.117588486659553 91.46971680734913 0 0 0
5467 1 27.46554193332507 7.870040966040594 89.1554870472106 0 0 0
5499 1 27.461314113974538 12.037607438260263 89.44860346157915 0 0 0
5471 1 31.735235752603952 8.207670745976143 89.23330446442628 0 0 0
5472 1 29.453506972881193 9.887044588410783 89.1253045648567 0 0 0
5503 1 31.40619461935995 12.22123502985606 89.29703667328845 0 0 0
5722 1 27.693702065330015 9.882492976510095 91.21649454990363 0 0 0
5725 1 29.564764538267124 7.938566845504617 91.64119127111225 0 0 0
5726 1 31.748832923368155 10.249098883743176 91.33578616262814 0 0 0
5757 1 29.551057442626938 11.91756014324273 91.12906571417668 0 0 0
5727 1 31.701561972901416 7.972523810754348 93.12307658509758 0 0 0
5723 1 27.245626041112015 8.013942124075033 93.52967932628647 0 0 0
5759 1 31.870625109492096 12.278435655474535 93.65213284387414 0 0 0
5755 1 27.531708315733358 12.023436966016735 93.63893906362945 0 0 0
5728 1 29.49132978826499 10.174547069392018 93.63340376765377 0 0 0
5480 1 4.4755265936855 14.220824430604686 89.2238995997759 0 0 0
5507 1 2.4410027960761855 16.060391566679428 89.29705474533779 0 0 0
5512 1 4.136253830799113 18.087707779278205 89.48157311471037 0 0 0
5730 1 2.582740095808478 13.971304199069856 91.41674429248891 0 0 0
5762 1 1.930068925799065 18.724142817428017 91.47321764915465 0 0 0
5765 1 4.18698387236807 16.439750847962287 91.4266109706067 0 0 0
5508 1 0.3460262098889764 17.95048104063979 89.15414138763461 0 0 0
5476 1 0.6241494998402013 14.094825212075458 89.43199443784246 0 0 0
5736 1 4.570464801481993 14.696541817554312 93.36325422615782 0 0 0
5768 1 4.533584912337057 18.5964345094356 93.27262565313495 0 0 0
5764 1 0.12415656377958134 18.77963577785107 92.98149871784513 0 0 0
5763 1 2.290016181344911 16.92566453844196 93.22117636307811 0 0 0
5732 1 0.445323376775432 14.039978577055477 93.16595828888282 0 0 0
5761 1 0.3651524461304644 16.045482019224437 91.29253313219971 0 0 0
5514 1 10.553852733593391 18.504503699844378 86.73286684159035 0 0 0
5511 1 6.161108471051177 16.53541601058434 88.80934387473836 0 0 0
5510 1 6.376800156220295 18.722974785645793 86.62337677932513 0 0 0
5734 1 6.607449360971007 14.538776621176082 91.18179517657605 0 0 0
5767 1 6.686750891833574 16.284191933163548 92.9300090495364 0 0 0
5766 1 6.477975552283806 18.335854335034032 90.8460676930636 0 0 0
5484 1 8.743472447150427 14.379425552013544 89.3194968559356 0 0 0
5515 1 10.860256971449493 16.560377511117863 89.24613631592207 0 0 0
5516 1 8.729175780532053 18.36225565541264 89.14855022554322 0 0 0
5738 1 11.12111959068566 14.479319751423064 90.79395084888995 0 0 0
5769 1 9.078932635114528 16.6168047335135 91.34859740086986 0 0 0
5770 1 10.935266690878908 18.841635840924738 90.62889417059463 0 0 0
5771 1 11.18000128183838 16.467317490949675 92.94490727744498 0 0 0
5488 1 13.028062079982416 14.450282878646682 88.99259512119225 0 0 0
5744 1 13.062714474627978 14.383882681504756 93.24153301103719 0 0 0
5740 1 8.832834285527523 14.436735947058713 93.31567875135002 0 0 0
5773 1 13.367218606295157 16.298377702755275 91.1548809208535 0 0 0
5520 1 12.814988695556996 18.61562955208477 88.85016201425842 0 0 0
5776 1 12.907488329596573 18.46096893024566 92.8194296571144 0 0 0
5492 1 17.18141058944408 14.43445992915668 89.55388325280427 0 0 0
5519 1 15.367159735465162 16.332226353446146 89.38981907430306 0 0 0
5524 1 17.252026356017307 18.271610941314027 89.27952540002815 0 0 0
5742 1 15.077372361952746 14.272386103957485 91.4270342443504 0 0 0
5774 1 15.181109260539781 18.932873103617528 91.42409815377968 0 0 0
5777 1 16.98769388921495 16.249554117461653 91.73336794758983 0 0 0
5775 1 14.925364121624005 16.778358261525838 93.44945804588171 0 0 0
5748 1 16.724185224805655 14.245157689937237 93.78596545269161 0 0 0
5778 1 19.04648177584714 18.74152460713021 91.31979717092214 0 0 0
5523 1 19.633162207094895 16.249713788386615 89.80572841490863 0 0 0
5746 1 19.0216590859395 14.157479246207231 91.56782343832519 0 0 0
5780 1 17.59152087077273 18.722589777586386 93.44525578490688 0 0 0
5779 1 19.416486674072264 16.584840652559095 93.14393784774455 0 0 0
5525 1 21.2063343115606 16.790833674530383 87.7164626312018 0 0 0
5496 1 21.323293303134072 14.324927671415585 89.00846967449878 0 0 0
5500 1 25.460032293597585 14.382136487427195 89.31425276073524 0 0 0
5527 1 23.414322729193003 16.616700018519655 89.21828090424002 0 0 0
5528 1 21.202558561983277 18.781770038768325 89.40341215325793 0 0 0
5532 1 25.484183826211876 18.458221857296444 89.38658044762614 0 0 0
5750 1 23.72148081863456 14.314876497119839 91.39375093930884 0 0 0
5781 1 21.413888531920158 16.569679121885358 91.22127347391495 0 0 0
5782 1 23.444208573397482 18.612377865179372 91.56797029465953 0 0 0
5785 1 25.28398233585757 16.354720927205793 91.47509681153178 0 0 0
5752 1 21.30887839635766 14.608935743866198 93.33374666080746 0 0 0
5756 1 25.537973090161792 14.621866496373848 93.87196831688634 0 0 0
5788 1 25.59540866363915 18.130319943310155 93.71693001875273 0 0 0
5783 1 23.36336959018705 16.160802607602378 93.8828142323193 0 0 0
5784 1 21.072270407747283 18.664543346892778 93.77917104063854 0 0 0
5498 1 27.43886110582644 14.347520847816597 87.32283546413956 0 0 0
5530 1 27.4428630664778 18.92248621021415 87.28344968149472 0 0 0
5531 1 27.532067571980562 16.649914896165555 89.32263655227985 0 0 0
5504 1 29.088995034224656 14.411792126564855 89.57303786142413 0 0 0
5535 1 31.462921859920247 16.141728599863594 89.3805649036652 0 0 0
5536 1 29.67553979850654 18.48444678390549 89.17984054264575 0 0 0
5754 1 27.1703474503825 14.275863910465894 91.57337507185092 0 0 0
5758 1 31.675899192445865 13.934536939283424 91.3840555294296 0 0 0
5786 1 27.527937104591267 18.45285169421095 91.4662456446322 0 0 0
5789 1 29.733069118256115 16.459348614117882 91.43030685464686 0 0 0
5790 1 31.490526499313187 18.70918467173865 91.3546283654583 0 0 0
5792 1 29.659046466552972 18.757192240470218 93.46220131934575 0 0 0
5791 1 31.489156891320068 16.429836454060272 93.32553752833715 0 0 0
5787 1 27.704579438607013 16.291158803050894 93.3886616685688 0 0 0
5760 1 29.58820189527593 14.255094939869835 93.35381109868027 0 0 0
5539 1 2.3095743717706854 20.615452846105725 89.4005064958433 0 0 0
5544 1 4.462391670155437 22.62460524766135 89.30870195114632 0 0 0
5571 1 2.4660523848734894 25.029678933470368 88.97904032682085 0 0 0
5794 1 2.4310622285779977 22.847628313512942 91.25463998360495 0 0 0
5797 1 4.494034634341486 20.40285236993215 91.12012936130357 0 0 0
5829 1 4.74840539526011 25.18726390331424 91.3066339350148 0 0 0
5825 1 0.19233149825619975 24.989465098842324 90.96892549500895 0 0 0
5796 1 -0.11146454297106563 22.815450976958285 93.29478599920084 0 0 0
5540 1 0.26738491424230804 23.163458583096894 88.73224864094063 0 0 0
5793 1 0.1351882429693385 21.01757264824793 91.07284214114019 0 0 0
5827 1 2.474623039049721 24.87074291210992 93.38221150077166 0 0 0
5800 1 4.4146276609264765 22.66192655314382 93.09299947658863 0 0 0
5795 1 2.6238985539953457 20.54637786122624 93.5768129411763 0 0 0
5545 1 8.314905880854452 20.462444809395127 87.06102679908057 0 0 0
5575 1 6.65006598681438 24.772846129049956 89.23120035481305 0 0 0
5543 1 6.246107021552058 20.54230715350256 88.96330396719146 0 0 0
5798 1 6.240344617600908 22.81776291532644 91.08557151414978 0 0 0
5547 1 11.090678843372544 20.5585606003016 88.60899942845064 0 0 0
5548 1 8.727819868427213 22.337307909943636 89.00054204674062 0 0 0
5579 1 11.0316614307065 24.514091644835382 88.7367726919159 0 0 0
5801 1 8.483313327454999 20.265540614768195 91.0478182036323 0 0 0
5802 1 10.71607370685674 22.32080701445202 91.0150038094198 0 0 0
5833 1 9.042632223345999 25.172556391454627 91.02875783904986 0 0 0
5835 1 11.069200461061799 24.733058044658932 93.31402188789994 0 0 0
5831 1 6.795042944927624 25.184145045150377 93.25622866582889 0 0 0
5799 1 6.493071012307641 20.787478670699993 93.09174825526549 0 0 0
5804 1 8.68166206593954 23.162073598759875 92.96069080544864 0 0 0
5552 1 12.788230160928068 22.724016462486006 88.81471537888675 0 0 0
5803 1 10.410215389118562 20.68212853293405 92.85311158063364 0 0 0
5808 1 12.664755563151278 22.71167200143379 92.96007170960594 0 0 0
5550 1 15.182763103181978 23.076013224273936 86.71921503518901 0 0 0
5554 1 19.29310029433633 22.82908793425804 87.31370022263414 0 0 0
5805 1 12.779426057045852 20.690834804736067 90.90838290510247 0 0 0
5837 1 12.592305174215026 24.81342688068546 90.80987919830959 0 0 0
5551 1 15.023581600043975 20.814072180356117 88.8422666478193 0 0 0
5555 1 18.985353083032223 20.384623340446677 89.10812972914358 0 0 0
5556 1 17.004707735609543 22.74218324591232 89.08978409654806 0 0 0
5583 1 14.801062347999032 25.047844020543252 88.67558799140473 0 0 0
5806 1 14.940812838913342 22.936973676459907 90.70296487635905 0 0 0
5809 1 17.024423833353378 20.833408118876523 91.17846127051962 0 0 0
5841 1 16.910023274493156 25.23176318631601 90.99161773880404 0 0 0
5810 1 19.002952825889803 23.29819921002248 90.85972490719932 0 0 0
5587 1 19.368871346849094 25.161293671980705 89.19132531903736 0 0 0
5843 1 19.02514725899645 24.81149869938937 93.42549991103803 0 0 0
5839 1 14.84576982490614 25.018518962267297 93.0606938639819 0 0 0
5812 1 16.67198418267691 22.82768469674105 93.01831657168711 0 0 0
5807 1 14.37859548201968 20.789677364768956 93.18687371799987 0 0 0
5811 1 19.175242202233928 21.346183651686697 92.9885453806564 0 0 0
5557 1 21.20136966942378 20.787164710408117 87.14584665087224 0 0 0
5559 1 23.376815718729812 20.63049429837242 89.47962152619822 0 0 0
5560 1 21.46223607233818 22.846839868012196 89.34746374416292 0 0 0
5564 1 25.52267315007376 22.88721963724914 89.21980149993382 0 0 0
5591 1 23.72120879927369 24.965942588669776 89.11543657870595 0 0 0
5813 1 20.98052132169586 20.696729059587874 91.06837232789063 0 0 0
5814 1 23.263327983828045 22.895341549231205 91.74119756899461 0 0 0
5817 1 25.544845176531247 20.662716127395523 91.62689249082206 0 0 0
5845 1 21.35973457988941 24.781090044911465 91.66877760100257 0 0 0
5849 1 24.998173075579185 24.814395692347794 91.68274823381422 0 0 0
5820 1 25.41934590955879 22.62214443288267 93.44369905168348 0 0 0
5816 1 21.297507609547925 22.406815033263694 93.56610295833705 0 0 0
5847 1 23.258133575640105 24.65270683938541 93.83427817024037 0 0 0
5815 1 23.309400982157303 20.49994483929535 93.47752769078129 0 0 0
5597 1 29.105712872635397 24.690366882524245 87.17651537487356 0 0 0
5566 1 31.738673585249032 22.770575488612774 86.70291700692083 0 0 0
5563 1 27.301557958375067 20.773070510812968 89.52329737465698 0 0 0
5567 1 31.67584232047312 20.7151269608429 88.98087302324191 0 0 0
5568 1 29.498954460665196 22.581042243649048 88.87723208596739 0 0 0
5595 1 27.290536492762566 25.042876191940813 89.40931161608741 0 0 0
5599 1 31.30749303424645 25.16871539718393 89.13079282601961 0 0 0
5818 1 27.36172216721764 23.160732231292577 91.31943106014765 0 0 0
5821 1 29.699697677279424 20.67117224594417 91.21593241122845 0 0 0
5822 1 31.542140307471872 22.92080418059415 90.81403251271426 0 0 0
5853 1 29.612547013780592 25.034580683282773 91.35577746942812 0 0 0
5855 1 31.43354315535449 25.002264077183238 93.2018435451616 0 0 0
5819 1 27.83155196364365 20.65044015100178 93.39891547840587 0 0 0
5851 1 27.20063525871857 24.874129037288938 93.6674731516902 0 0 0
5823 1 31.375896511995258 20.790301555321054 93.10644880745072 0 0 0
5570 1 2.322879453096391 26.76311378669537 86.83641066408535 0 0 0
5601 1 0.0901308252057571 29.022467914137685 86.72989111650344 0 0 0
5606 1 6.83739841454431 31.00848068461026 87.21718054494092 0 0 0
5633 1 0.1694646706436596 0.22894402566011152 91.15911938245968 0 0 0
5379 1 2.882078732111387 0.21246450080462997 89.11170739937843 0 0 0
5572 1 0.5410941046044359 27.101527123126687 89.10100047144755 0 0 0
5576 1 4.334116784934775 26.666623713496783 89.27067881371416 0 0 0
5826 1 2.2924271870648756 27.086632447959477 91.16420183803936 0 0 0
5832 1 4.592019324656218 27.08901889553285 93.47056745866205 0 0 0
5603 1 2.760632588951913 28.917195890223994 88.89864763927955 0 0 0
5608 1 4.549492703919047 31.200494477184854 88.77911398068933 0 0 0
5858 1 2.563443658286823 30.906550417906725 91.17262106413983 0 0 0
5861 1 4.721954761005576 28.733407667947112 90.9371307161086 0 0 0
5857 1 0.4022949389540113 28.95734380334004 91.0831881463989 0 0 0
5604 1 0.44451544598881904 31.26477739634022 89.26969959719051 0 0 0
5859 1 2.348371800287523 28.958857624293792 93.29592199381571 0 0 0
5828 1 0.26165856632405693 26.656314479954265 93.36760877348064 0 0 0
5862 1 6.727087754607411 30.89510806365917 91.15502267336393 0 0 0
5609 1 8.683577492318815 28.984393310727814 86.93949378376506 0 0 0
5387 1 10.87340795620336 -0.08769151254121484 89.1902339624485 0 0 0
5645 1 13.228615584230143 32.84850662631508 91.0395642278027 0 -1 0
5830 1 6.7502232898794405 26.886394657651802 90.97514847121882 0 0 0
5610 1 10.957907246143801 31.498019419614348 86.74683168605279 0 0 0
5641 1 8.86387101887572 32.83915185469638 90.85288815556189 0 -1 0
5607 1 6.663398155521722 28.73290096137624 89.2602579542725 0 0 0
5580 1 8.84035992075237 26.77577952971517 89.05581583960837 0 0 0
5836 1 9.046470330129491 26.760977112590208 93.43012282746454 0 0 0
5834 1 10.69041625241762 26.960750131859164 91.3048884079279 0 0 0
5611 1 10.854623345882226 28.48713085219745 88.90785395914382 0 0 0
5612 1 9.15235554829727 30.72934890918304 89.19767464771252 0 0 0
5865 1 8.784656911678594 29.005583850224795 91.39919220568432 0 0 0
5866 1 11.042662984870566 30.721000187728947 91.16405692809607 0 0 0
5868 1 8.942999312627471 31.11092958266296 93.18500069959441 0 0 0
5867 1 11.123389327356275 29.067898831929213 93.4234173557899 0 0 0
5584 1 12.689253376531898 26.81523117684473 88.9175679423832 0 0 0
5616 1 12.845501479179404 31.190719785176434 89.01118222864532 0 0 0
5639 1 6.573108541055524 32.852756477690654 93.17942787621806 0 -1 0
5863 1 6.966267364582551 28.784767792321425 93.35275176065805 0 0 0
5617 1 17.057560318263384 29.30811412336143 87.51555525936857 0 0 0
5614 1 14.935836396628545 30.69461854256952 87.03456409146595 0 0 0
5647 1 15.219715917645052 32.490315308490885 93.06244404315561 0 -1 0
5649 1 17.177430263846258 32.91326791326586 91.01043759931513 0 -1 0
5651 1 18.878245182745513 32.99302392310493 93.20604522591479 0 -1 0
5869 1 12.760851037257165 28.703468809862883 91.28614161592243 0 0 0
5395 1 19.271372778617184 32.958452230165435 89.41180510601498 0 -1 0
5838 1 15.067428903593672 26.633617911375616 90.91068634970492 0 0 0
5588 1 17.19456570758945 26.98466037676688 88.58876861883786 0 0 0
5844 1 17.220145378089207 26.83058206314347 93.46418576490105 0 0 0
5842 1 19.315572845021578 26.92993519076068 91.26326029688634 0 0 0
5615 1 14.851425078294188 28.818851838021896 88.98617586850402 0 0 0
5619 1 19.505834284391746 28.80521276490658 89.07021416913787 0 0 0
5620 1 17.192532183963973 30.869872272414725 89.3552523753342 0 0 0
5870 1 14.841304589946654 30.71504427074224 91.2174208383937 0 0 0
5873 1 16.93158458385163 28.710084342026963 90.85836252312747 0 0 0
5874 1 19.278819627881376 30.757161318062455 91.22101443693862 0 0 0
5653 1 21.783398417006005 0.21004899528133503 91.50121018733167 0 0 0
5846 1 23.34480988274546 27.036278854657798 91.56839648759939 0 0 0
5596 1 25.52995138389727 27.125125527591127 89.15741406542999 0 0 0
5592 1 21.597594949538856 26.800686020518373 89.07266565883921 0 0 0
5623 1 23.130271644706355 28.999010316023888 89.29543935973496 0 0 0
5624 1 21.261834809643805 31.02235492804913 89.71292122487704 0 0 0
5628 1 25.04489681923093 31.43920114412353 88.95128702032765 0 0 0
5877 1 21.39632159123443 28.90247364304863 91.45077618162726 0 0 0
5878 1 23.491851987414663 30.846717609869334 91.36157244345638 0 0 0
5881 1 25.551180834366267 28.864173843207464 91.1795956695338 0 0 0
5848 1 21.184603192939377 26.918561047746763 93.399300273779 0 0 0
5880 1 21.212526370429146 31.48196761815059 93.13812335388332 0 0 0
5884 1 25.306535194477146 31.195675206554448 93.24570735457186 0 0 0
5626 1 27.621590853103267 31.41217832799736 86.98242142068776 0 0 0
5598 1 30.9223135066887 27.013506777318433 87.15988807633208 0 0 0
5629 1 28.850102722666325 29.255604065682526 87.08457155569545 0 0 0
5407 1 31.6974197434194 0.04850671977741514 89.38216324761409 0 0 0
5403 1 27.030850634543423 0.35514802489263314 89.020890099809 0 0 0
5854 1 31.517504739737465 27.312416753849828 91.14957032483761 0 0 0
5661 1 29.652738606864762 -0.06928616208316604 91.33436883372347 0 0 0
5600 1 29.146985982772705 27.20737842221004 89.21973927337334 0 0 0
5850 1 27.40710827856792 26.84865251215619 91.61030803787094 0 0 0
5627 1 26.99262007398662 29.10667046054374 88.8730356779344 0 0 0
5631 1 31.355108019491237 29.026146809113627 88.84486904645213 0 0 0
5632 1 29.233812893108567 31.380839700158596 89.36287646523925 0 0 0
5882 1 27.15152096263381 31.18613962340946 91.09353506724595 0 0 0
5885 1 28.771497801206532 29.168224458814986 91.04697677012253 0 0 0
5886 1 31.52080143389367 30.90624708344289 91.26940948511124 0 0 0
5856 1 29.38403061911738 26.786973153340043 93.26699615301806 0 0 0
5888 1 29.12742124813196 31.120302107283052 93.28859234404504 0 0 0
5640 1 4.5299163703749965 2.18547871358772 93.18400687172407 0 0 0
2 1 4.624625726218493 3.7594682109048425 99.47123378032428 0 0 -1
5890 1 2.214946193607566 2.242585651244862 95.4925244203862 0 0 0
5896 1 4.248736261904741 1.8861700470875318 97.42121281650323 0 0 0
5923 1 2.4355543567039235 4.319502931670342 97.78293999770466 0 0 0
5925 1 4.236394957285832 4.27382467579559 95.27027562449034 0 0 0
5892 1 0.6221494581087077 2.1883824799487477 97.53752533454447 0 0 0
5921 1 0.22343931481074225 4.143134802728063 95.56392729941973 0 0 0
5922 1 2.486283986070116 6.015937064540791 95.62342932934263 0 0 0
517 1 0.44554444754984945 4.0455367485752545 99.47846137276613 0 0 -1
5928 1 4.672666743411749 6.401203806132112 97.36482823656677 0 0 0
329 1 4.659629837020665 -0.07320618674761242 99.78850404294015 0 0 -1
5889 1 0.3142133520916153 0.17763558931578066 95.15714375723685 0 0 0
5893 1 4.490472375835373 0.29594456309842443 95.05237241801322 0 0 0
1 1 0.44366057925413604 -0.18358178320690807 99.69030278604544 0 0 -1
5891 1 2.1920461719132898 0.08721181142918691 97.28126493134036 0 0 0
5675 1 10.841198283685713 3.771863646909102 93.07807835919323 0 0 0
5927 1 6.729029937697495 4.109142698797903 97.42645818778898 0 0 0
69 1 6.947680550776422 5.935861461003197 99.36710159218805 0 0 -1
5895 1 6.668763277013452 0.1657028054462006 96.81982356217308 0 0 0
5 1 6.803580919619921 1.6005434219579835 99.41079509751013 0 0 -1
494 1 10.845209134925964 1.8184681725088285 99.49352081473377 0 1 -1
294 1 8.662376191116447 3.7004589538654544 99.2531390090758 0 0 -1
266 1 10.77568708419963 6.038963287686335 99.73672309827185 0 0 -1
5894 1 6.793038350027889 2.006528371654324 95.09734657368499 0 0 0
5898 1 11.034071720596433 1.93485918425327 95.15754840428637 0 0 0
5900 1 8.600200898229218 2.1187317281835885 97.05630864847159 0 0 0
5929 1 8.830124057806326 4.10786737497478 95.00652122423742 0 0 0
5931 1 10.809575279349474 3.7924113326286357 97.68020082899817 0 0 0
5932 1 9.23219647898934 5.634546223313567 97.18928268610904 0 0 0
492 1 8.908408809928467 32.96413112843295 99.40546989103204 0 0 -1
5930 1 11.101755134184799 6.346877268453834 95.16711140184664 0 0 0
45 1 12.58525576752129 3.94726084424074 99.26744778165418 0 0 -1
5926 1 7.098807377331918 6.065394450167454 95.19636867351001 0 0 0
5933 1 12.687461701825384 4.110909938064457 95.47772885764314 0 0 0
5936 1 12.870209737703652 6.204730748495398 97.54124714725816 0 0 0
5901 1 13.439175638440467 32.89838828243524 95.31515197843494 0 -1 0
5899 1 10.80013645706971 -0.20515294321829006 97.47618420996811 0 0 0
208 1 12.910862711831928 32.72308615960486 99.66195183988188 0 0 -1
5904 1 12.689237894166823 1.649535151197098 97.2579790474376 0 0 0
14 1 19.032664228210116 1.6689005855385761 99.64339369476674 0 0 -1
305 1 14.60292139236652 1.810674305457415 99.34220095771833 0 0 -1
113 1 16.94715994160289 3.9114906043282125 99.31800779440238 0 0 -1
5902 1 14.797180154227513 1.89205557782022 95.27584680827759 0 0 0
5906 1 19.04682796618501 1.7459880809037818 95.38990489091964 0 0 0
5908 1 16.5544765032053 2.0544570927311763 97.3022394408946 0 0 0
5935 1 14.607880578018547 4.050619077111941 97.39920325175433 0 0 0
5937 1 16.76213695914175 3.8745948743699596 95.46014004280094 0 0 0
5939 1 18.91613332039518 3.7401713527911067 97.41123456644927 0 0 0
5940 1 16.82490959448795 5.976047936589894 97.48557472618857 0 0 0
5934 1 14.95045445527983 6.219499194140062 95.69325010697399 0 0 0
5905 1 16.852978823007206 -0.13667442598891236 95.20316430711989 0 0 0
5907 1 19.03266623545957 0.09915210426732914 97.52815994111725 0 0 0
5903 1 15.247853537706634 32.6491507141513 97.69874266659373 0 -1 0
53 1 17.050321427199002 32.91069495382871 99.6185380110389 0 -1 -1
5938 1 18.919288745539003 5.891527263348201 95.46063638830577 0 0 0
289 1 25.294760413890778 4.034327776438686 -1.0891853265620166 -1 0 0
50 1 23.346556453855268 2.0928564679719845 99.80054065848739 0 0 -1
115 1 23.15777382464529 5.981107875926158 -1.4776735433346933 0 0 0
534 1 21.181728639409872 3.863803056289412 99.21889219026869 0 0 -1
5910 1 23.43239711577096 1.8109688616830832 95.50084879046032 0 0 0
5912 1 21.382258337707523 1.7943989000585387 97.67373718473608 0 0 0
5916 1 24.8550979541375 1.8291252973897691 97.93013198663874 0 0 0
5941 1 21.14846405224607 3.4954003943907925 95.60305920601996 0 0 0
5943 1 23.352415961258895 4.286563278692129 97.76558818199518 0 0 0
5944 1 20.9075342434982 5.881900547945819 97.1996919297192 0 0 0
5945 1 24.971108096544583 4.003722351865815 95.50926605155901 0 0 0
5942 1 23.032459999164267 5.844943147279809 95.58183650956354 0 0 0
5948 1 25.36942441636988 5.863546845430569 97.59779542873072 0 0 0
279 1 21.343938042410915 -0.20786856408360724 99.59184286189121 0 0 -1
5909 1 21.179189208948294 32.64605950259918 95.38401206256582 0 -1 0
512 1 27.429190000096277 1.9620374708428485 99.81866393946069 0 1 -1
95 1 29.607321647412903 4.251968524522285 99.4951190624549 0 0 -1
5691 1 27.43573699404366 4.06777508736191 93.34285689068953 0 0 0
30 1 31.483109543020017 1.8332799170886462 99.17634779423491 0 0 -1
104 1 31.58624411150508 6.2316203652205004 99.67054425317184 -1 0 -1
254 1 29.425818302050793 32.85413770996857 99.6872437662227 0 0 -1
90 1 27.46611343121985 5.995895528963514 -1.367153875677804 0 0 0
5914 1 27.172812559306376 2.28394255189245 95.67664582162644 0 0 0
5918 1 31.319091439197713 2.124960040295054 95.77968861604428 0 0 0
5920 1 28.97875891279667 1.6784193571960861 97.63663005266542 0 0 0
5947 1 27.169141875569633 3.929315390561514 97.90667963709606 0 0 0
5949 1 29.69451665233046 4.152939341392695 95.35328925514196 0 0 0
5951 1 31.66360984992785 4.068138646067862 97.62571382071985 0 0 0
5946 1 27.311953187979295 5.5103365350175 95.43786029109522 0 0 0
5950 1 31.47426435343896 6.145859001084538 95.35550894467421 0 0 0
5919 1 31.90897553449384 -0.1704251633598817 97.36859955568922 0 0 0
5924 1 0.48566324171502395 6.096762185735372 97.30148538119437 0 0 0
61 1 2.610805488880882 5.828497621845644 99.6267187513971 1 0 -1
101 1 0.8748359931696091 12.114557192937367 99.5472097130398 0 0 -1
94 1 0.7247467121816787 8.148048157729136 99.73898819333628 1 0 -1
666 1 4.737514285157274 12.30055962182241 99.6299304725123 1 0 -1
897 1 4.523365339803939 8.346646857702527 99.48251721134056 0 0 -1
5954 1 2.949850813225684 10.225052463885905 95.48408305567578 0 0 0
5955 1 2.31835060051161 7.953263408757336 97.69552895519202 0 0 0
5957 1 4.749181405953894 8.14176918349985 95.28364035623991 0 0 0
5960 1 4.800502132489911 10.345689290219136 97.48838376929453 0 0 0
5987 1 2.99325197385809 12.342410251699045 97.658402654461 0 0 0
5989 1 4.603891497511181 12.435037667353004 95.6301223334891 0 0 0
5985 1 0.7338385558882626 11.839172480608209 95.27919095733711 0 0 0
5953 1 0.7385781766642197 7.942070887949854 95.3923403861845 0 0 0
5956 1 0.6855591592632643 10.05361939667626 97.33069118976037 0 0 0
5958 1 6.633744307122626 10.277607540949479 95.61343876166299 0 0 0
5959 1 7.019307524651061 7.974705864582305 97.42594811662008 0 0 0
108 1 6.9961551020746455 9.99277141483766 99.26487891935018 0 0 -1
5991 1 6.966022589301313 12.259475510418438 97.89491746484875 0 0 0
326 1 8.901747286736393 7.877255247200154 99.13972903013371 0 0 -1
70 1 10.827583916485006 10.351142150247432 99.7429406368971 0 0 -1
269 1 9.085402609348007 12.231483983942317 99.65387224494212 0 0 -1
5961 1 8.714859729682546 8.046809810520543 95.10638349853782 0 0 0
5962 1 10.627881025305964 10.413402138917558 95.09772386808179 0 0 0
5963 1 10.822424074952469 8.315229593487258 97.32641642123184 0 0 0
5964 1 8.898765239476521 10.322801266306593 97.38275851203684 0 0 0
5993 1 8.839169369446413 12.25783041571923 95.11982396628648 0 0 0
5995 1 10.700567124587272 12.511592555848202 97.41432912069727 0 0 0
5968 1 12.636513797063744 10.397027262149079 97.45989736606276 0 0 0
271 1 13.099592065801945 8.259914968484319 -1.4024415427252614 0 0 0
5997 1 12.962028057448519 12.271765304121585 95.59490349281289 0 0 0
197 1 12.641008306302925 12.504811207786348 99.7759470522518 0 0 -1
46 1 14.911575270391445 6.26589214052437 99.53055473686192 0 0 -1
5965 1 12.958936234882751 8.493093598972688 95.42376907911859 0 0 0
142 1 14.610754723205059 10.43670372846666 99.33776150333513 0 0 -1
475 1 19.043010183776577 10.195581541831988 99.7009188735145 0 0 -1
76 1 17.464882989363126 12.425943350810646 99.36593468498012 0 0 -1
5966 1 14.906633553894077 10.268293196755218 95.76463253223288 0 0 0
5967 1 14.705776575865784 8.35343750506937 97.59308883246584 0 0 0
5969 1 17.065640145089034 8.199141915617501 95.62158950835986 0 0 0
5970 1 19.480298100659343 10.379360721943272 95.36642310972015 0 0 0
5971 1 18.884583320888105 8.098569459243395 97.25129803296527 0 0 0
5972 1 16.921096467768372 10.512946056157558 97.35586303009877 0 0 0
5999 1 14.875864590101074 12.423851672566508 97.50856746275932 0 0 0
6001 1 17.065678113626372 12.08559717724255 95.25437622828409 0 0 0
6003 1 19.336033353361255 12.12982252411818 97.3085311168214 0 0 0
59 1 25.435712944893748 7.684046688692793 99.87660868053422 0 0 -1
118 1 23.612385250827298 9.617309300920892 99.61870619822105 0 0 -1
121 1 21.09095714635693 8.125848049690022 99.4205878041693 0 0 -1
633 1 25.19789815178912 11.770933481233062 99.28241999428768 0 0 -1
5973 1 21.345383175125473 8.105954136689213 95.55842727765464 0 0 0
5974 1 23.50608351279757 9.817474040097567 95.48563016356138 0 0 0
5975 1 23.393863139771195 7.820646367700154 97.6081182091704 0 0 0
5976 1 21.52599572245375 9.931322007951605 97.49875656791089 0 0 0
5977 1 25.231202601945082 7.731717464451302 95.64978246644768 0 0 0
5980 1 25.23877246101059 9.93882496120454 97.38468313761948 0 0 0
6005 1 21.404096617663274 12.320390641936728 95.76698627688941 0 0 0
6007 1 23.138847786791068 12.055441843313217 97.74752346762222 0 0 0
6009 1 25.101595861593506 11.94218306006022 95.50189701672268 0 0 0
5952 1 29.21436589350495 6.004389399151662 97.48788763956047 0 0 0
767 1 29.432213952925693 8.303463006450052 99.79795145697534 0 1 -1
127 1 29.750098507054734 12.512763941645014 99.10258357200576 0 0 -1
100 1 31.620396598287886 10.195951681204482 99.02988873514379 -1 0 -1
577 1 27.261128807017286 9.981571894238492 99.61509108115857 -1 0 -1
5979 1 27.402839918922172 7.941723540062728 97.86946454084509 0 0 0
5978 1 27.46015148565938 10.018810210242496 95.59127230294445 0 0 0
5981 1 29.40680818445478 7.914538983835215 95.55219914529606 0 0 0
5982 1 31.618076242092467 9.75570352087399 95.34150065553189 0 0 0
5983 1 31.4903120503159 7.7810784796973245 97.6026614602071 0 0 0
5984 1 29.583366198566253 9.793323283614159 97.41601067897622 0 0 0
6011 1 27.50267536508641 12.085118929444388 97.29128475502469 0 0 0
6013 1 29.392912438150663 11.997666859914217 95.53285338730963 0 0 0
6015 1 31.59906410606217 12.172005904988426 97.21648693421501 0 0 0
354 1 2.6081340323159665 14.304599225778269 99.3946577241159 0 0 -1
414 1 4.670287854468375 16.727719081537142 99.38906788394914 1 0 -1
98 1 2.5227067426024252 18.73844266371214 99.56376177108775 0 0 -1
105 1 0.7585760719577874 16.333864094677814 99.5263503591781 0 0 -1
5986 1 2.437978017700999 14.497191892402961 95.38947064056525 0 0 0
5992 1 5.024101085449299 14.515455778065201 97.76914960457769 0 0 0
6018 1 2.2428612875711136 18.287485945448815 95.514191046113 0 0 0
6019 1 2.85663309778527 16.476617207916544 97.31615351238986 0 0 0
6021 1 4.546996242834979 16.367877572374354 95.43142787064114 0 0 0
6024 1 4.835430835472074 18.750689790312876 97.58652365855062 0 0 0
6020 1 0.5042553873342871 18.414661718158055 97.71078475168055 0 0 0
5988 1 0.7443139981370742 14.105079471803002 97.42929639771599 0 0 0
6017 1 0.6489873585313334 16.356719839765553 95.6005438984476 0 0 0
5772 1 8.596853126261157 18.588663752510097 93.33694947653898 0 0 0
5990 1 6.817199408541849 14.070825907131608 95.2344207474491 0 0 0
333 1 12.823155055890275 16.731426961507808 99.5943524253684 0 0 -1
162 1 7.0793963221643175 18.526094626738228 99.81856294349163 0 0 -1
6022 1 6.70154047529746 18.39045167819535 94.90093661211257 0 0 0
133 1 7.042893382513411 14.2115480289179 99.35187998218447 0 0 -1
876 1 10.67674270034676 14.485062783421723 99.25394013874757 0 0 -1
6023 1 6.8639510235818655 16.58977419703437 97.14263544943813 0 0 0
74 1 9.007894639731791 16.499519493857655 99.48697104861711 0 0 -1
134 1 10.753463959863264 18.689566466419063 99.20482836030796 0 0 -1
5994 1 10.905836689940186 14.546006480865815 95.43777468153746 0 0 0
5996 1 8.76180031065476 14.676740175491274 97.28274713162862 0 0 0
6025 1 8.747474309612397 16.47312456959437 95.0454835595575 0 0 0
6026 1 10.688551306283664 18.67585636643129 94.77170693852082 0 0 0
6027 1 11.321577902429016 16.731699842228764 97.1699895021476 0 0 0
6028 1 8.932558931770394 18.496196093622775 97.49794294458206 0 0 0
6029 1 13.026929062160383 16.684888657955 95.33895436080805 0 0 0
6032 1 12.986175551002674 18.743942800395757 97.35687657991753 0 0 0
6000 1 12.960696207619804 14.549881205253376 97.81466381066446 0 0 0
621 1 17.21296105972783 16.531605207344466 99.30881114121169 0 0 -1
558 1 15.320394787945615 14.38715871566285 99.27790516503737 0 0 -1
5998 1 14.881742543355932 14.371272068713987 95.64108911437381 0 0 0
6004 1 17.37974416324615 14.157768562591848 97.0726524708443 0 0 0
6030 1 14.967761364848279 18.714695216025063 95.28216982676994 0 0 0
6031 1 15.249227501877725 16.748830415081017 97.2970748371228 0 0 0
6033 1 17.361935377818888 16.468320499093966 95.23098199880897 0 0 0
6034 1 19.24984240931921 18.404707471640062 95.69429245203374 0 0 0
6036 1 17.185052182038717 19.115905973760725 96.91936345664782 0 0 0
276 1 19.0728717063022 18.36358253995909 99.44741029416856 0 0 -1
6002 1 19.326664534822722 14.221730005542762 95.3444965125834 0 0 0
6035 1 19.215308946070834 16.281463032080087 97.4712155071603 0 0 0
123 1 25.924282755542084 16.366612894546034 99.52274257346112 0 0 -1
923 1 23.91510832578897 14.20260119326105 99.1762442940514 0 0 -1
149 1 23.54068873364255 18.37569442546405 99.63089468552452 0 0 -1
665 1 21.33551654774218 16.43269117026268 99.57811617305555 0 0 -1
6006 1 23.611388132553454 14.156977445905094 95.78768667804518 0 0 0
6008 1 21.443427084435026 14.336014643414336 97.82137547582094 0 0 0
6012 1 25.901681774983746 14.51268415816144 97.6898733033463 0 0 0
6037 1 21.356968009617088 16.077420285971897 95.75002920343732 0 0 0
6038 1 23.20943244731937 18.45639477713431 95.55068953197834 0 0 0
6039 1 23.424301579323142 16.54464846919728 97.65913395785282 0 0 0
6040 1 21.337460871439575 18.44337374171648 97.59233644438001 0 0 0
6041 1 25.47955209661091 16.817332577664786 95.68925288874628 0 0 0
6044 1 25.587142631476517 18.69449892192402 97.87909694693981 0 0 0
644 1 30.147544661067123 16.562109488996192 99.82572274987889 -1 0 -1
155 1 31.873680983353704 18.65656909513894 99.70421865923022 0 0 -1
379 1 31.992740393591017 14.284398768894487 99.22486642028412 0 0 -1
124 1 28.027624161706335 14.682892949563358 99.42461443811824 0 0 -1
157 1 27.703399493171208 18.745091749918906 99.58580448590995 0 0 -1
6043 1 28.17399708942532 16.74184724009731 97.269286898264 0 0 0
6010 1 27.810120980752462 14.534470292391573 95.30783706283013 0 0 0
6014 1 31.66560593674047 14.082393286138284 95.49863060331927 0 0 0
6016 1 29.81236847570904 14.585846350093625 97.38927353251223 0 0 0
6042 1 27.406558202856775 18.725360956313736 95.68636659207152 0 0 0
6045 1 29.859123582674645 16.36063670456135 95.20860957625054 0 0 0
6046 1 31.95373016474859 18.450586763365553 95.1160470316648 0 0 0
6047 1 31.705807353888005 16.99462292077367 97.65250457205711 0 0 0
6048 1 30.045596311202537 18.983137810395828 97.7219197393511 0 0 0
163 1 0.514232279351402 20.826828301045186 99.74160133370702 0 0 -1
200 1 2.800236589862319 22.541034458182555 -1.4919768186700821 0 0 0
199 1 4.709963699302916 24.9174210022934 99.3093388916125 0 0 -1
6049 1 0.42556890251600565 20.7719457918945 95.30074024542286 0 0 0
194 1 4.7211790912679765 20.341904780064436 99.81423977236116 0 0 -1
6051 1 2.6147195727117194 20.51422806120633 97.66560068398485 0 0 0
479 1 0.7496455877876068 24.814275035728826 99.50407052503016 1 0 -1
6050 1 2.343128476849492 22.628643526174677 95.62197504887743 0 0 0
6053 1 4.548400191748054 20.840896937321013 95.32401531399059 0 0 0
6056 1 4.840743329383294 22.474723638756085 97.64408803277436 0 0 0
6083 1 2.4509766067584082 24.836122516813507 97.430362451994 0 0 0
6085 1 4.549417362441059 24.86236417719569 95.25049339407566 0 0 0
6081 1 0.6091834020872383 24.747433617668687 95.43631920159469 0 0 0
6052 1 1.0082684020760415 22.552441311471632 97.80224797867238 0 0 0
674 1 6.626534917307973 22.901404749964026 99.40043719600764 0 0 -1
384 1 8.622655714149051 20.722334155090312 99.46122932497636 1 0 -1
6055 1 6.587747499697996 20.675420186779466 97.2140037516212 0 0 0
657 1 8.686190006855549 24.79920169982777 99.58667081262367 0 0 -1
6054 1 6.754062788110186 22.679838040948926 95.1329197611817 0 0 0
6057 1 8.7105208335678 20.66215010662071 95.24334327147882 0 0 0
6087 1 6.470186647959072 24.77338463692893 97.29603398719934 0 0 0
170 1 10.95402973437412 22.466837610075423 99.18505379888417 0 0 -1
6058 1 10.907058857261946 22.79129162810707 95.05761442233167 0 0 0
6059 1 10.916333701921268 20.58430028791135 97.15936244957759 0 0 0
6060 1 8.607725058429706 22.568694052078328 97.23612801508277 0 0 0
6089 1 8.620760934467809 24.557947665819544 95.14327017536763 0 0 0
6091 1 10.806872943989712 24.640951317521456 97.11350373447232 0 0 0
6064 1 12.91837980987274 22.75309767571619 97.49875404734169 0 0 0
6093 1 12.814639944574038 25.011152546698476 95.06529052177405 0 0 0
138 1 13.085039927639503 20.63890547630992 99.56247891641678 0 0 -1
6061 1 12.83369082034809 21.027473241638017 95.26636464021283 0 0 0
178 1 17.455357580906814 24.91959264799965 99.55320694557301 0 0 -1
427 1 14.916238943068448 23.059191221213375 99.26160702265481 0 0 -1
112 1 17.144369516199966 20.358932408510782 99.3802952908333 0 0 -1
6062 1 14.918697144320747 23.020615609990934 95.02507299449206 0 0 0
6063 1 14.855970758407176 20.600645379152414 97.06914584386331 0 0 0
6065 1 16.871520689607586 20.716856388411518 95.02453884947279 0 0 0
6066 1 18.837665454547242 22.528232878553833 95.64585503204187 0 0 0
6068 1 16.776747102868338 22.459778142493715 97.22471920370982 0 0 0
6095 1 15.09361463233872 24.569885951790262 97.28882925075958 0 0 0
6097 1 17.285422869075553 24.768104226708363 95.37600546019091 0 0 0
177 1 18.819354552169663 22.81413346614225 99.2910955753207 0 0 -1
6067 1 19.481350511320056 20.60802898635557 97.95088885087559 0 0 0
6099 1 19.16036822750023 25.089880306943964 97.30798911467124 0 0 0
638 1 25.63081456173741 20.95137751934043 99.6580939925511 0 0 -1
181 1 21.797378095831444 20.57528318396975 -1.4264138679112248 0 0 0
153 1 23.752303833460232 22.722429139337823 99.58806331023499 0 0 -1
730 1 25.294325163965347 24.657579936089643 99.42868338853408 0 0 -1
6069 1 21.293645174898923 20.548619066475055 95.64606736319905 0 0 0
6070 1 23.57348993838177 22.47610598706952 96.07732928572631 0 0 0
6071 1 23.138035170212678 20.28549072199445 97.48990039612308 0 0 0
6072 1 21.266626908261184 22.712877636521352 97.84544059488368 0 0 0
6073 1 25.24090915273795 20.40502183598556 95.50804893154 0 0 0
6076 1 25.748395589202655 22.756335277750377 97.28774829677124 0 0 0
6101 1 20.897330558546486 24.356908527877472 95.60706595970393 0 0 0
6103 1 23.274957992583193 24.888907761739958 97.0271406418886 0 0 0
6105 1 25.408416862428677 25.127351727285216 95.67192158011783 0 0 0
385 1 29.73022034470084 20.601864442950667 99.81335911964315 -1 0 -1
5824 1 29.610450275440552 23.03218984726556 93.29369934444873 0 0 0
474 1 27.790259881159937 22.955877288417433 99.40950291018804 0 0 -1
132 1 31.731233394141814 22.788961297491603 99.38885016360352 -1 0 -1
6077 1 29.90065697174287 20.971228082779128 95.27035765162289 0 0 0
6107 1 27.775257812035786 25.0267233313186 97.5890462592134 0 0 0
222 1 30.001253748580364 24.660080500153555 99.80716518532516 0 0 -1
6074 1 27.464656592827623 22.220782462239153 95.50731008537373 0 0 0
6075 1 27.716744375819967 20.835267270963897 97.73941869950858 0 0 0
6078 1 31.661975678497907 23.038715585986107 95.56431938799288 0 0 0
6079 1 31.91798645211199 20.617580397214343 97.39574606279525 0 0 0
6080 1 29.47896833363262 22.78743842500153 97.37113439654337 0 0 0
6109 1 29.416605373675853 25.098814244763634 95.18608177087997 0 0 0
6111 1 31.886996524924086 25.236636986977718 97.46492264255599 0 0 0
5635 1 2.271182233180248 -0.04753953628341596 93.07252122995362 0 0 0
5864 1 4.3383617091617985 30.624590399597576 93.07954128546491 0 0 0
5860 1 0.33996970208296756 30.958268881251342 93.16348626495756 0 0 0
231 1 4.612911890712862 28.942892343423733 99.51725748432978 0 0 -1
252 1 2.716750534567206 31.1865612455193 99.6475069835822 1 0 -1
230 1 2.627841179732209 26.63564076774945 99.71150273084297 0 0 -1
257 1 0.5194528298060446 28.776250789818985 -1.3508241613987448 0 -1 0
6084 1 0.561759063995366 27.167230170852612 97.60077752605552 0 0 0
6082 1 2.240858144652223 26.900394767679952 95.27406161959941 0 0 0
6088 1 4.0664824539904725 26.964817374005488 97.5820602759036 0 0 0
6114 1 2.309778443568056 31.38688556873339 95.28975233689623 0 0 0
6115 1 2.522849156547526 28.856399972841814 97.4244205080086 0 0 0
6117 1 4.035179276843198 29.041842428006742 95.28599514656347 0 0 0
6120 1 4.685161904791016 31.083388818395296 97.19017487900888 0 0 0
6113 1 0.34791430800304446 29.1828903848374 95.17320386676651 0 0 0
6116 1 0.3962080320689015 31.061419364618637 97.25524761728595 0 0 0
229 1 6.404767439750247 27.125270336743817 99.18261931613213 0 0 -1
5840 1 12.906421353013954 26.794242963344914 93.4557508453829 0 0 0
5872 1 12.980885189393872 30.98116510408029 93.22373687279368 0 0 0
5897 1 8.785919281419554 -0.1550889333473761 95.36750077831707 0 0 0
6119 1 6.624353761483256 29.245352177740756 97.30146204574105 0 0 0
202 1 10.978458994459693 30.94744564339675 99.50712720383294 0 0 -1
429 1 6.724184491976918 31.456457632875978 99.28368033422562 0 0 -1
259 1 13.23304536156786 28.914173503112274 99.46622837230825 0 -1 -1
6090 1 10.685963068617683 26.94872706602627 95.63938548943952 0 0 0
6118 1 6.822009425398259 30.846327762612162 95.27223736551471 0 0 0
6086 1 6.790799789474224 26.769190638643146 95.43532557145711 0 0 0
526 1 8.705068399643993 29.246655623228627 99.3516872067995 0 -1 -1
240 1 11.053084170505507 26.949257088154507 99.34238775913083 0 0 -1
6092 1 8.62257971907611 26.739258411532592 97.46122451787652 0 0 0
6121 1 9.066522505506454 29.35996233328906 95.07979644345592 0 0 0
6122 1 11.296677834442127 31.063914424139256 95.50130204788388 0 0 0
6123 1 10.776386810764407 29.153843873296246 97.28214343161905 0 0 0
6124 1 8.741350058382531 31.247276853864943 97.30894565069286 0 0 0
6128 1 13.043411993968139 31.149730516946956 97.40443968276719 0 0 0
6096 1 13.116806162703122 27.158787038321726 97.30047029696463 0 0 0
174 1 15.262157097907835 26.18654366926239 99.80039609511246 0 0 -1
5871 1 15.054192363010742 28.687620953635385 93.22277378648668 0 0 0
5876 1 17.051838838039636 30.52271762153718 92.90779696065952 0 0 0
5875 1 19.061542175318017 28.753007287855716 93.09048079112199 0 0 0
6125 1 13.046815232660915 28.81704241212341 95.49166617025314 0 0 0
234 1 15.12055786231747 30.86605104306696 -1.165111719681195 0 0 0
210 1 19.358394521289185 27.10348076739021 99.66562232792631 0 0 -1
242 1 19.084928334271964 31.023200627634072 99.8459381270062 0 0 -1
284 1 17.13989308738507 28.700497327831297 99.73448320747636 0 -1 -1
6100 1 17.224533764952664 26.984049119730727 97.48230707614874 0 0 0
6094 1 15.476800742323833 26.969100466713975 95.3034845826186 0 0 0
6126 1 15.260240973923569 30.920461912377824 95.60580200816808 0 0 0
6127 1 15.429913060681278 29.019915165491714 97.71012322982199 0 0 0
6129 1 17.23620086771706 29.07848447338403 95.39549171350673 0 0 0
6132 1 17.43588893273811 30.88380026950532 97.82099365268469 0 0 0
6131 1 19.17279413030127 28.803430184333177 97.51900282252343 0 0 0
6098 1 19.604907725487028 26.916867702478648 95.2299586098514 0 0 0
6130 1 18.932035128785536 31.15131138876591 95.122129152626 0 0 0
25 1 25.765887981002965 -0.16427074791020468 99.36986267200585 0 0 -1
5879 1 23.41496943774069 29.049807618094235 93.56407283007928 0 0 0
5852 1 25.236146362852327 27.24585417303178 93.51289282987234 0 0 0
5913 1 25.689079205505223 -0.0526093240639693 95.15031867513144 0 0 0
5911 1 23.119446456722805 32.96700817492392 97.41846197593912 0 -1 0
6102 1 23.091210171558444 27.14049851914802 95.38200678460441 0 0 0
18 1 25.469969747703853 28.597107494920778 -1.46147253762302 0 -1 0
754 1 21.468646479746553 29.227561739391994 99.55496375946488 0 0 -1
245 1 23.326832087181657 26.884785855948405 -1.4088945795099308 0 0 0
6104 1 21.218359934310588 26.951727858964848 97.81707462430442 0 0 0
6108 1 25.6068796486272 26.851956579039086 97.89658131420138 0 0 0
281 1 23.58727129349589 30.863982677393096 99.66780750761642 0 -1 -1
6133 1 21.065378797983715 29.384587212645936 95.14395545460486 0 0 0
6134 1 23.153798776486983 31.03623061368302 95.62793832033468 0 0 0
6135 1 23.407382633191006 28.606776713967633 97.8571243571772 0 0 0
6136 1 21.102672447049457 31.287810257875925 97.68392580201943 0 0 0
6137 1 25.272792088426367 29.058502514200693 96.08710321818808 0 0 0
6140 1 25.03973552990703 31.20927128027673 97.65741056120808 0 0 0
5887 1 31.25428790757464 29.162756290517805 93.35860177898873 0 0 0
5883 1 27.568177242271016 29.03374414277966 93.22945525093846 0 0 0
5915 1 27.30558542555506 33.00261591962761 97.44268635846036 0 -1 0
225 1 31.640371906118194 31.202713159798805 99.4912509166123 -1 0 -1
5917 1 29.232581676546044 -0.1213375467064064 95.57149542466682 0 0 0
484 1 32.00192612242588 26.641691320210104 99.75214326869377 -1 0 -1
31 1 27.666989875391 30.84363242529877 99.80845056356631 0 -1 -1
246 1 27.77287005384813 26.5837601221314 99.5986823546163 0 0 -1
6110 1 31.85616826278612 26.91248186222263 95.50863316668384 0 0 0
6112 1 30.060006487105834 26.912831651910697 97.79370173782229 0 0 0
6106 1 27.182205766066556 27.334425760762 95.60300214768043 0 0 0
6138 1 27.1497052219395 30.72674770571774 95.40312144945324 0 0 0
6139 1 27.574093641214333 29.198858377133416 97.8163585968231 0 0 0
765 1 29.941247870943933 28.81744455288161 99.64642930555772 0 0 -1
6141 1 29.587355519708034 28.937062475864582 95.48413340762751 0 0 0
6142 1 31.30636887376496 31.461407722888435 95.28144237674806 0 0 0
6143 1 31.797177825742875 29.064502781252802 97.45248157720197 0 0 0
6144 1 29.58610426280425 30.955382716933638 97.52099959248518 0 0 0

Velocities

6 -4.206603556451502 -4.614191787103981 1.2423776322853461
36 -2.222101701184149 -7.119113967429154 0.5893925371249965
505 4.594017278307326 -0.34461061161835976 -1.9505158491950156
542 -5.6025987016227266 -5.779908843393488 -2.360509450972245
350 -1.7208943420710974 2.279839409610572 2.1416964264015754
91 1.2325941997621577 5.864915736160897 -0.39069305215525324
39 -5.025711441046377 1.6292212787393472 -0.3880592193777619
615 4.772676263846294 2.759528149515117 3.7085841684122665
1036 3.5055753223166777 -0.26333677327058286 1.6658581674110922
73 -5.015959196865305 8.646914448641327 0.5199458166985415
900 -4.239967784604442 2.987535074009246 0.7766432701226174
1270 -4.0871154231361 0.5898758338313268 1.9498502914553137
904 0.8558807394533182 1.7106060620279182 8.924428507937527
1014 0.2693753721596152 -4.052873200424421 0.931272194056197
550 6.181480519723484 0.24457354206669718 0.3304841036238034
64 -9.000429624684793 6.004761194863289 0.2569622388377254
8 -0.8169966971908534 -0.4744334692682501 -5.946379916378275
44 -2.0490123020937685 0.9641948499178814 -4.150247861210192
1003 3.4250140355480854 7.401823813080162 -9.595437223347977
464 -1.7424564174481003 2.9153372423472685 -7.328970265451194
236 2.4174965493810743 -9.134103407178788 -2.8497470170361976
38 -1.1281466775655387 3.3547901537358973 1.6170644596918482
238 -1.0052718203860376 -0.40459286105218817 2.0482204857558015
552 -4.935647994744655 -1.5801746866770965 6.5574506984562815
813 2.4305222368223953 6.4050154216448725 4.5647189431586686
490 2.8202026281979578 -0.23667219067064438 -2.8069366567214065
172 -5.20366587771785 -3.007428649752401 -2.3969646139856207
432 -0.2764510764575303 -4.707095297758854 -4.126162446146495
1084 -3.342274443174672 0.032353044896472616 0.31744146996587264
58 -1.9034108561802274 -2.301503625636449 -4.756652542218274
24 4.690344864035019 6.956840988736954 7.56008613744738
280 -0.7140867436543928 5.407591874669284 -4.104707393477683
290 -0.7103663729832614 -1.5578141140653332 -12.32436385766024
503 -7.8397937038704 2.2257729186889934 -0.8808072208053265
493 0.47464485617652397 0.7245897877623004 -0.3152520628484392
299 0.35119796364200645 -2.7353364949036045 -5.810130242512448
811 -2.7265634270163153 5.015421689878651 0.5219857564761171
359 -2.8518945377261242 5.780666518153653 -0.19579902229404902
215 6.477339618433018 6.396653142665843 0.5813988907730061
672 2.1406721856195294 1.609795138371169 -0.3066598870812695
732 0.37709945229268815 1.212120947669552 3.1294680157446204
20 0.47646635515135416 6.983475199947139 3.651940487301108
311 2.3411103326049747 3.7053037353137257 2.16086734402469
791 -0.6168330843530133 11.764277779580512 -3.2323856827418616
749 1.8581098894595565 -7.907220310577174 -2.6789974899398388
71 -5.101597065817474 -0.492826293412413 5.782087420524106
203 -2.4861681184114466 -3.6098183036313776 -0.036605065960367986
721 -1.7826402161963972 2.003888667305915 -1.7919160915556414
817 -7.932119085407661 -1.7241043935641858 3.8962735195586977
313 3.2517500163212874 2.509556384335324 7.914281178508495
300 -2.4721786710733573 -0.35655061435592333 -0.9050379068567205
766 -0.835869608301239 -5.194997087465171 -3.1936555413238614
12 -1.4639784149512862 -2.212745074324424 -3.3258961687598436
522 2.290914822369562 -3.9560660489076622 -5.226171873408372
86 -4.232967600850603 -0.8145206383942968 4.596869927408482
449 -4.864793492473224 -1.5686497411625862 -3.7660040417308127
21 -3.558136074414377 -1.8704944553130238 0.08270794857622862
566 -6.884230446428328 -16.634950665028388 -4.049841674247905
57 1.219713518782951 -2.3079452035065886 -5.809675211664746
27 -5.033460501029515 2.9698152338965347 -0.1775051636423208
807 1.4775343936452678 5.351602427054589 -7.135880102234453
1052 8.03661406063303 0.005321248630634828 7.676964880061089
554 -0.16813539715860948 -3.414397393382537 -5.737790141307599
540 1.0531293338627952 2.464391843999155 -0.5345397767589585
89 3.449051204093716 2.7832081599850516 9.75762212877255
349 0.9125725501846541 0.9090463201755946 7.229570006374103
110 -1.4306576478807917 -9.536447259777512 5.559813495315986
22 -3.8417162734772416 -1.697128757776435 -5.496676262803638
768 3.1602124332232755 4.433466637389962 2.9170181029687114
440 -7.193425810205174 -5.320329063906006 4.818066622807187
478 -5.087345092496733 -9.49513053073446 6.454994524524774
84 -1.3406229784229917 0.9836925203670708 3.0316178073063313
752 -1.4734970114216817 0.14628692604741456 13.402436140616212
573 -1.6799822123300978 -2.982984057322344 0.6910948153480605
515 -1.0541082294254929 -1.0397909816349993 2.2369329923755634
286 -0.05811514501713835 -2.7768814462051683 6.450454269961729
291 -1.4977051798490488 -3.5081101003993687 -0.38470513126056244
510 0.561621491879391 7.368208046008685 -0.7088102096448208
62 -3.3518175321165686 -6.64691056713571 4.780085770320085
790 6.624400013648002 -5.345498864238272 -9.178050741945626
264 -0.9590317941710852 -4.2566095238135135 0.4784326298007281
258 0.42612218872549884 0.2018483627344522 1.485242660112602
543 1.8433268833049985 -9.55519843244624 1.4600988550711498
486 -9.898706948804266 -3.971096149832474 -1.6454662724573101
562 -0.81253702534076 2.4672752593351066 -7.241021544440142
247 -2.629076245536735 -6.119006195746053 -3.0475882718948935
507 1.873132225694519 1.9596126382909036 4.782364204270088
233 0.8549339030339779 1.1635947693920308 1.1427303834390208
72 -7.556077319537159 -7.32721140253843 0.35302645036973496
893 2.2136389343116916 -4.925223809129447 14.334661397808693
604 0.8484695951759452 -3.9478683184085277 -7.792731677954128
548 0.4943279955271616 2.0228433357364053 -1.4265267230138747
131 -3.5353257916399046 5.015629818763248 -2.9872194177389186
37 2.6170080528718893 -2.6993766824538734 -2.323679127104242
612 5.170765597232588 -3.1207505812098897 8.974898881062533
858 -0.8815336282483706 -1.534332043701292 -0.7321561062777728
1092 5.80580431787549 7.238024262858821 -3.5834882292572856
378 -0.8726280036183789 0.8895002033303386 1.1318043718158441
709 -3.4151874512852745 5.6685963235816255 2.977131598345213
634 2.5687720838994177 -2.422915430777723 -3.4918896679693288
1122 3.4837374261456517 -4.640277944846855 2.64851503798374
869 -2.798240643663693 1.3912905160820133 5.730481817561674
875 3.8532192725844863 -2.504855960022547 2.5860870619182665
667 -4.828875219290925 -0.562123027143682 8.767013361931847
636 -0.24122668751984241 -3.734237196869304 1.8906352479014616
97 2.311218364080255 -0.5395950492322255 -0.9751226938085608
561 4.6926977065865 -0.791162800562666 -0.680861798029073
1330 -4.372944327779054 0.3751280515613987 -5.049038866027385
67 2.9657390032380753 12.39505317037235 4.855773291293712
102 -5.421435555334852 -8.3902984803798 -1.8347113241183681
99 2.0113632963019485 2.9130235500409043 0.40078903298555474
553 -0.23742059327549733 -2.1843433861270505 8.932834005015433
530 3.674364473678889 4.5935039828600575 3.633487198379256
870 0.1314673699010415 1.7972094086316674 0.3446087114044235
1297 3.0535065320993318 7.982636610068485 6.31721409153554
556 1.4110989636969977 -2.1499972159848704 3.192905595761981
103 1.653140754687713 4.7724711050953195 -1.7251233690947503
504 -4.433013876066186 5.669728329170867 1.0674870837087027
780 -3.6499932824506236 3.709648607718531 8.147140038742313
746 -0.6642225534260752 3.218407101378201 -6.497231881728392
547 4.788449351677043 4.282257516601486 -6.359806077535421
278 -3.217925957478617 6.453663590735647 -4.608198707005539
77 0.002775943806550059 2.158560990522666 5.4406629356357215
377 0.3721810675432467 -2.4409285175720803 -5.081101596816545
11 4.835200211226544 -5.229010697217076 -5.212972707130581
748 -5.4431105437364415 0.28304399864520824 -13.308006111135219
613 3.6095116623188988 -8.853992034926135 6.045263879903511
78 1.5740573751727802 -3.5650743899482733 2.1351118799235635
288 -7.14939997088367 0.6896471100693227 -3.6754354344619915
409 4.057234162987487 -6.81318654556649 -1.2702493463656688
75 -1.8041404136319972 -0.42123154010324226 -1.394981764234198
85 -2.866075223459924 -2.5467674132668585 7.928755577546876
533 2.920693265034196 1.0613994926047714 5.403446507695067
462 2.561987742680518 -7.293264819645516 1.1099282649331499
1269 0.9431774886390343 -0.17845150402096333 -3.3797530138448524
442 -7.109892009343382 2.6981343833170226 3.2410613477680794
146 -3.1493646547252463 0.5880305736122842 -1.041032162957798
55 -0.021725763751858036 -1.6534814266036655 -0.07967567769156203
316 -5.593947742851649 0.7966168491331035 2.628325129825125
310 -5.49480882023853 -1.4062742218114463 0.9063551676320325
663 -5.596229996629507 -0.6884270595645057 5.086991866032687
603 3.7310223619559633 -1.8858963850956967 -0.9745803723546596
346 1.199696166381379 -5.277583294207432 -5.388205804181123
407 3.1192076400641997 -0.5626905326003806 1.8958878422298064
34 -4.413414555102652 -0.19920523633023596 2.777507040963363
1105 -1.7505356163136208 0.2536309156147603 -3.0553925822588117
401 -1.6013216078032417 -1.789170128723752 0.9531000108830074
563 -5.1417987986234595 -0.4406384181476564 3.457048216355304
314 -0.24861605373542486 3.9081628603481953 1.8905251339671483
415 1.8907104608492733 -8.205138031994393 2.5053160232852028
244 0.06183124933457304 -1.8339218266538069 -2.0614914138946308
868 3.697488567154946 0.8961679887774197 4.7829948738484225
1142 -2.283704663892392 3.4666075409419683 -4.6022977010675055
693 -3.675292955443128 -3.4473438793805564 -7.549603923763184
857 0.6650214395046237 -0.7512372371553439 -3.5705144047102007
129 5.03475523075995 -1.7240117936230406 1.6441301265351573
630 0.9761894459143885 11.0279847320721 -2.7149131508516664
546 -0.6995861615488164 4.37594410401208 -4.162354556914218
411 -12.94356808834989 -6.188848911109847 5.866336119091972
1209 -6.729875693784444 4.472487479918401 -5.943632417715342
575 0.8980276050593532 -1.6803869217854368 -1.2615487278152298
888 -4.212245685768326 0.9149580573461108 3.793223561072503
117 0.7269840002838294 1.9978622371317354 -2.0865234194005913
602 5.615350050373116 0.2197366416965665 -5.039986837666578
328 -3.4720505997027806 4.158029853120663 -2.6564249275105274
572 -0.4717875028148512 3.286609030803462 2.9526464009979465
357 -4.40525713168524 -4.751903040574669 3.4772815150445986
167 0.07110391937677552 0.8281600376633292 -6.0299220315025694
701 -6.5878729574984245 -2.6926636055965747 0.8458249787696107
201 -0.712714123963796 4.963564636502437 -2.944749983004991
695 3.2055857274040314 -2.0056044501925134 4.693261492586477
139 -5.54782070557118 3.4343391466879925 0.9787491245019109
68 2.6151487235457873 -7.420214894897918 1.1448723215978094
1025 0.7008757426470555 -7.110726727101044 0.7666584046344341
159 -0.6607844655490266 -4.800607000256101 0.15980044671028215
937 3.0194325860281275 -0.7951059759230239 -4.9490875116298545
1484 -3.437639057112634 1.6310374971841228 7.8226582240087
272 -5.285176649046349 -4.920546161344157 8.846110882668523
1218 0.8194964338510379 -4.830274074760826 -3.3802231591814587
905 -1.9816097361286957 2.865437499143856 5.667878022555859
1126 -2.7904075945949245 -0.36119136721898804 5.95644823231956
682 6.593778839863406 -6.8775351346052975 -2.85460998963129
871 2.5159132161228364 -4.310296434735232 5.4693817703359535
106 -5.469315326127353 3.0447548469657373 -0.6418189244043638
298 -5.025610611422723 -8.676910837358122 0.5304851655868682
581 2.117016460709209 2.276700966699572 -1.2041578303547436
392 2.2139445124447343 2.91368604355174 -0.7302324516066969
686 5.643799482457519 -2.653541404720536 5.223236011065839
788 1.5018544158144063 5.138391627722363 -2.1088466686598735
423 -4.207938118083899 -3.130007161547181 -5.71075145994673
1058 -1.4742515849201783 7.994172821435887 -2.0721799879788585
583 8.690233139065965 -1.9030020901411802 -1.0100596940599817
171 -4.226773043357225 -6.972198664450577 -3.435102645979451
144 -3.144021637000361 1.6372077661948374 -2.2548648424018842
661 2.557676850710516 -9.77616646741115 -0.01736106285928038
342 5.315130240040718 -8.467679886165206 -0.6579959992279677
489 -3.59818324853468 2.774810221581526 -1.9161743798050137
66 4.742861014669207 -2.2105196858863816 -3.178455033890103
109 4.957476043826309 -5.446790456656052 -1.3318257554061494
502 -3.174144095770435 1.178502980808702 3.1761242941822827
471 4.151972587015107 0.8241146925067534 -4.269855985775551
1230 4.689564244467007 2.8435877091967523 1.2730220551947595
590 0.9657431072537961 -6.60709706475853 -5.559837272684305
79 -4.729406723656462 -2.467118842578431 4.124023253216617
404 -4.599031353357858 -2.18867332633015 -1.6465979134681827
394 2.537235587313303 -3.407776871555783 4.7965418504260855
173 2.551142594098507 -4.755371392775661 1.148560218699943
1132 2.9951493238393603 0.4857444287368317 7.7505655749605635
584 8.501627405971528 0.7314844357662115 -1.9703327540330058
338 5.834432944781193 3.369027228568413 -0.8178726590315306
397 -1.1767336062742597 -2.1105691622505645 6.921026665740278
88 -3.035032691392124 7.311819747862039 -4.183488416775142
152 -6.135738037245557 -1.2993853492485954 2.3677202351604496
187 5.7086939748122605 -2.504336811672708 -1.0794545254725958
668 -0.48614265384902366 7.924692691433036 1.6079095447881127
698 -5.078893908887986 1.521671448063053 -0.6733288522113535
862 0.381400648903083 -0.27882236240913605 -5.202198289214075
924 -6.78719118436626 2.8059569490447083 0.1352046420220085
978 -7.437896209590672 9.148370781893442 2.992462199602555
959 -1.2514631813049073 4.0287851537378305 -2.014018334199429
192 4.248220254407635 -12.570605742959936 -5.5972693731569
1414 9.679650834905162 1.7002906026387694 0.41213423829463336
1462 -3.751015724182471 5.86518598755954 -1.9671912715835131
537 3.4709920425544993 -2.8945123652116402 7.2525570686189145
306 0.3495637525009383 -2.354386161754249 3.1660033044842324
367 -2.9339163371001784 5.7896479756414765 0.28812155467271705
160 0.44289144683863674 3.5423364723697413 1.0971621129972429
671 2.793882157350799 -5.798812013571334 -4.868864591308237
1181 -5.357243367177663 4.983098601289939 1.2119611196622835
1152 4.339607928688592 -9.5473276259706 3.2514556498822147
382 0.5713366293039555 -2.6798996036648965 1.8296243852113225
189 6.813109909430992 -3.982072476513512 -0.63123592727348
1573 2.31842964372412 9.554002042033286 -1.4209879154216887
936 -2.388754893024608 4.123592040569622 3.7511207729599403
419 -2.5248698656513855 -2.6865055416390637 -6.293983475597475
243 1.7719845751269816 0.07857608157717708 -2.921590199769909
926 3.4484488920647736 0.24695302224781418 3.4105979045018278
168 -1.8438909505160015 -3.1153704525697345 5.030554435464309
369 9.681508930617113 -5.292784796137652 -3.485866885224937
198 -4.076214079334792 -3.5536686660886345 0.9407645324730167
770 5.519958469266232 -3.2036170128565518 0.3070718727539108
358 1.650830559134055 2.136117774163721 -3.593123872429581
165 9.175131492413843 1.5067166832143395 -1.652901217191724
204 7.651980524475127 -3.0288829955592895 7.461693572549984
626 -3.422461026959071 -2.6096042165288478 7.646527049215482
128 -2.7954862213563256 -3.1868494353072125 -6.229104831444172
389 2.436190147139448 2.55246662456115 -7.685205759515594
80 4.752545641579407 0.3388041647207586 6.098721982722942
745 1.6198877556884381 -7.272126002591165 3.8765481515723605
387 1.791180394930199 -2.7427860421265424 0.19060135652536184
455 -3.047240025264588 -1.4424839639373708 -1.6450914949753697
418 -4.826155585155249 2.3520734033850705 -2.408901259949196
4 5.614309931453968 -1.5527346927210846 -4.729504442743558
425 -5.24019360309981 -5.386657347708371 6.776593716382202
685 -1.8074412084724996 3.4619584572573334 -0.4476922140128863
239 2.7902927821164045 -3.480820043647045 1.9470962750542515
169 5.066612810014323 -7.069971122988439 4.3786087997833265
205 -8.115047632011926 2.3995266220347156 -0.09375531168332744
13 3.6623436856230107 4.5530535855175955 -0.8525583009516635
1257 -3.4654487267108625 0.8967574387044415 8.488022983802463
689 5.547810813162148 -9.966547141669212 -2.779991143704987
135 -7.937867030359866 2.758170625736564 -0.4706377327719934
1698 11.32959277651013 -1.4804772903031824 2.5606510928649753
56 3.995081050810683 -3.9426917131189443 -3.3794812093046045
430 -5.905873779138307 -4.489195715381516 3.023279215340112
302 5.915724851589 0.9833653526342423 5.561534777422214
373 -4.017291975006013 -2.451451552618987 1.8095632057702635
116 3.891265793519501 -0.866532368519909 -4.142555264022111
435 -0.08967574562046828 3.0155781598182845 6.54686209718879
182 -4.780650656393648 -0.5985813185219442 -3.774906011041197
183 2.2877791791506046 4.084826341213896 4.580409560881101
755 -3.036050425657419 9.620278306801639 2.303173322417698
224 11.39900961229064 -3.2587862198708635 -2.756303685666314
366 -13.223681201803037 -2.283311448129469 -0.5224493923191824
218 3.328450747914517 3.1797692993105104 -1.0739824349241236
114 4.762633682427992 5.567424656475338 -6.635543820536665
412 -2.394465007672734 -6.410087641228185 -0.40396531580820144
642 2.0937154306688623 -8.436441259049603 -8.205100843765871
617 -7.390362478722451 7.335581515246387 0.7855121286820878
408 6.223867621472183 -0.518525570377482 0.7850063191503942
262 -6.423052372522016 3.971890947617657 4.820666252335314
514 -4.613224968328932 -9.387229261669907 3.6613562116127727
143 -6.9322881670840175 -2.871719643509338 -5.128537327352366
441 7.3078049768459366 -4.659434423326097 0.7100923072702674
191 -0.650956187877304 9.71097398233413 1.5838235498473863
217 -1.49977319345078 -5.0020153715881 0.14259492477878152
469 -3.1962571187925173 -3.42359445055738 1.5151207758339678
920 -0.2764775923667699 0.6743189128621164 0.42228462297670666
659 1.4516713879402356 -2.4669540872455973 -1.758431404011108
501 4.414741454856602 -3.4524019025121087 6.1825008316292935
742 4.924221649905049 3.8180754784791495 -0.9749942079558072
528 5.082962649682011 1.5803535683168657 -1.9249288774845952
948 -7.010348845498563 12.198737901762057 -13.180214429648322
473 0.982006543134944 -3.4009760198182857 0.7102061807270418
249 -3.7050884734420046 -0.49429059712493406 4.203569000420333
221 0.9625542076824009 0.2759524574512958 -6.264696711000564
1202 -1.5719653546810937 5.405964770908743 0.7041461875838001
453 1.7361823501860771 -0.4690670482073672 6.549285443306259
161 -6.115954052433469 -6.501589455324467 1.0859326396050792
154 3.8453475720139285 0.02662697055468008 -0.05388902083285002
150 4.99518363254226 -4.134311755192348 -0.5640187966967816
470 -2.913589789555986 0.738236771645118 2.7281785809945935
450 -4.125023269512682 -2.98757806009576 -3.0917144737063325
448 0.7349996195613142 -4.5161058704923756 0.6437612652271858
445 -0.6120094921358104 -1.0376542186663935 5.95504957975604
903 -5.111355554860758 1.495085926560119 -3.241361773929497
253 -4.083202107650623 -6.714879750412751 -2.8168492077674565
675 1.7231953674648224 0.1504372988687791 -0.9630306980811343
800 -3.2635901534593437 4.124379173121371 -3.189382848630844
228 5.424241292623275 1.8896981080449278 2.9559485490751465
255 3.5361735437475827 3.8427105957181853 1.4826309954624297
1474 -0.5398231630609629 -1.0016628183900689 -2.626012053162127
267 -5.005632646728981 -0.12258380507803818 -4.828489593212367
1214 -0.39298153677507947 2.2602307832555164 0.09906153082715283
232 8.215751613648873 12.008840582550242 5.012496378983489
219 0.08915718791516163 0.24340262322443174 2.4817737747230897
446 -1.9762911356797526 -1.2042651325879086 -0.054352158733175844
488 -2.7343463533926364 0.18022606471571523 -0.05655024468118151
428 -6.553621477151617 -4.265541054663042 -1.3109584132748655
250 0.22915962782245822 -0.8241372155018944 2.9703404788914707
737 -1.146220809088725 3.485789779019966 2.253160927459631
496 3.991700700941569 -3.3329041645425304 0.5896661421565753
29 -6.779937606644451 -1.2553564103328148 6.727502844144025
820 1.873623555526249 8.91786102685078 -3.6119352261972653
452 2.122232737841549 -4.193698604374247 -0.516921046718625
226 1.082827078618219 -2.5377342898109907 0.3891629352948729
380 -0.2664268684685715 3.192148576965151 9.33356190107218
463 2.683675905527722 -10.074087573073207 0.03927838732611851
454 0.7604310838061947 -3.3056841437909226 -6.711869132014042
293 -0.5312208708978605 4.266615988183244 1.200779872848142
458 7.915335804047155 -6.449062663843022 2.996525585119298
331 -0.8619766979071871 -2.105539856103065 1.8266513682060932
136 4.211951454957276 6.992020916930187 -0.13788239096632443
611 -3.651982167556333 6.3875558524843115 1.1378858833922523
883 -2.794382627938199 5.88551844622893 -4.185053851798972
343 0.5755136639701236 1.1017933647873202 -2.9451386920326015
497 -3.221419415879389 5.0392352290231335 2.1007351655782545
297 -1.6281833050907435 2.9629808132968827 4.65977418210289
393 -4.00824097703634 2.0351441032983906 0.9832121228761007
206 -0.2279478661900498 7.435633988065683 -2.8875251781803573
676 -5.838514280140399 4.7043897136408095 3.403983205945961
506 2.696732206535533 3.984678741549517 0.9237095140350167
908 -13.531858904423112 -1.3164962401957818 -2.0452540985032903
251 1.6981182202404899 -5.377315724810973 4.661441166475686
292 -4.09008481723327 -3.9320468306175673 10.033732488274994
274 1.6033018786106734 1.4427088413880027 -1.3145363294847885
753 -1.3785064886188407 -7.30336138070346 -1.19885518716011
213 3.708228236517595 1.8012094809813368 5.192429324557122
41 -0.13808637215817943 0.3077372466737361 -2.2921925666115217
495 2.643280570048478 -5.909000014416863 2.517217546923513
942 6.7603001287326085 -2.3385493218997144 -1.3404078139901423
751 -2.7101876899587456 -4.566490192162665 4.143644792467976
28 3.4079838287233013 -1.719662046794363 -0.5443125529014228
241 -3.166686769835015 -4.560940239128236 -0.6480350280256288
399 -2.026532688272949 -1.5892891502523692 2.497988701008581
623 -5.281641830549575 1.4177288751428405 -2.6493782142899023
1467 -8.457818266669031 -1.2425656597877666 -0.8973061932745877
1299 -5.88597933294763 -6.423435236846748 -1.2712941905472468
481 3.876066591922947 -2.0753694469790025 -0.8775220330694224
898 3.17020884801684 0.8578646043362169 -5.030926983083673
957 5.378462310358509 4.453446690063197 4.231618701927357
466 -0.5983508709282365 0.5308225357834763 -1.7959996211669547
1015 -1.5254460352241108 6.717504648595331 -1.0587145140325012
248 -4.448722327059771 3.73869883512422 0.9274495231068514
417 -2.905928900451015 2.8851025931126606 1.4527002657700752
658 1.2451983067171917 -3.153888933505646 1.1686505646623417
193 5.095288154176715 3.2320168264376887 2.2274267344135983
209 0.3509403120107737 -2.751294722469696 -0.05906625958024862
571 -4.050402912187129 0.9454209849932703 -11.631128514377497
17 0.3939376171358434 -7.36576507925055 -4.294100144715196
607 7.763991121809329 4.249602319407165 3.0455327484454062
443 -4.720421143658573 -1.011643132459322 4.030667824857492
508 3.7326290207834996 -4.969148299142327 0.5605685170059802
965 -0.6328375125763409 -6.338685986096757 3.550895666585625
421 4.551194142251343 -0.6601398996223062 4.902739148575912
890 1.2615974153945615 -12.149095572841258 -3.1568190960886997
158 -0.7295697698714623 -8.646370235841722 -7.7597372872050805
196 7.378605289447961 0.7176622242612514 0.3778278490702395
211 -2.766137452665377 -0.724593137139666 3.033951912078311
509 1.6387885533335018 0.7547625340215981 2.3833764408935822
220 -1.9167491432911272 -0.4844701302802893 -1.1497604945421673
54 1.6306945551745355 -4.743014732256433 -3.869558043972182
285 2.5381470606588596 2.4216550999878357 2.196872968406453
802 -2.073033190710395 -1.6368896449603598 3.5626865336890923
282 0.9524058518783988 -0.8300068168027989 1.8106182363903427
1061 3.139044176578196 -4.309755157858725 6.474846428151088
1200 5.853467742337891 -10.583231960962609 1.9421398998479236
1121 -9.126809913964372 -3.847399328782596 -0.11686631314978477
585 0.6778847029322814 11.623479838846917 -9.988182466236218
930 -4.1770102985533235 4.02897969095103 2.5930320469980983
459 3.802430054009103 -3.3442462410640634 -8.413299649644015
833 -1.9897772512445036 -5.504011900143858 0.6069222779539604
970 0.11054178871426781 0.756471397764023 -0.11118905577623689
712 -4.277579272778712 0.6890947639535838 -0.4950535974948846
49 -9.066941004119528 -1.8930415904482099 -0.5167931930408732
520 1.1539346524508782 4.814504226904337 6.509806908998932
1093 6.155351676055637 7.96515770376718 7.269962429676591
1322 -0.365322193364732 0.8434213087727896 -0.13931343898627424
361 1.5042491867499235 14.184185898469241 -5.492502180703987
368 -8.69367835872675 -4.11288675253162 -5.643664411276425
15 1.3273469361329666 2.0308042951464813 2.160702145393593
1264 -2.012148837089468 -10.738403426648217 2.8216050111935886
426 0.05265822380628497 -3.5234083991758527 -2.497132793173823
525 -1.6329917473911086 -3.5128686951661434 -3.8440637676621185
1079 5.555990525148588 -6.623541250287708 8.124915406185265
130 -0.4530287016485096 -0.7336995892897666 2.0519730378605607
320 1.4993195824535126 -3.04886015232225 -0.1961240131674241
7 -5.904264544686529 -4.688975233706546 2.0427683793877285
498 -2.801901864179112 0.3940281397603017 4.581904520807354
580 0.7108182163943709 -2.579878943987389 0.3532839989478975
1089 0.04523569840120261 -3.479111426853095 1.3104839731045457
1066 -9.200439243783928 0.48333168034630997 -2.627090838070261
787 10.44978863517632 5.50619013546859 8.220061983393597
997 -2.755664607333498 1.0442380647480556 3.584686587009525
887 -0.9916658095007806 1.3460901801304308 2.3263475537079894
595 -2.9974636453152748 7.735112505006177 4.608085304748836
779 -3.42130091849211 -4.854286274467898 0.2331630648684633
1611 8.957103937293203 3.7938625843591396 -3.4328467871278012
1044 -1.1376698244634944 -3.401562112312242 -3.710981404123437
60 -2.7021098503748426 0.3505204208469863 1.317205750335584
352 -6.91537551800462 -2.197017849210428 3.706268932626941
340 1.3123051255447449 8.573548350884069 5.421592334498665
444 5.9717507970717305 4.393840330731238 10.283514261825323
1274 -5.106729012064495 -11.734331799285917 7.321595547222943
855 -6.473688073257107 3.5754204043067537 -0.426398828438449
1701 0.2322607964059485 -8.679389466159664 -1.9960629940284211
1587 1.940171169062863 5.739098941424486 3.6190942451024783
725 5.6193940421186435 2.4570653503997772 -3.6016291528988553
549 -5.981313072897396 8.735186765778607 -7.3646510422355975
374 10.906201650251925 3.056073705716154 1.5205764528254766
618 3.031338094464103 -0.3769115245617553 8.89495828202653
1238 -5.370815853068294 -3.3387364581505934 1.2851235709486397
93 0.16524315958970778 0.2677978338042121 -6.938426732375772
1016 1.780136095622931 -3.6732338610513913 -3.114691130663148
10 -2.683335599277706 2.7480999466999476 0.06582288623373948
1311 -1.3764352214602884 -6.10691708057637 -5.962350373034473
570 5.234414920416226 1.0420592638070778 -1.9065610925802317
877 6.7972876490234535 1.1303364120623471 2.9753443930752983
825 -8.01497590731746 -4.66262394530336 -3.188155813763903
260 -8.732515947142428 6.251580366392989 -1.3429623864668796
1008 0.818922980904402 -1.7932707297152795 -3.5152421123801543
823 1.2413667981377223 0.8438452389042166 3.513523979184375
786 5.484026837763533 2.780896644877352 1.6957896425660106
402 2.1265506183260343 -4.343226375091939 -5.742011732037578
345 1.1991171643495695 -1.5031690760942276 -4.2271271424614465
1002 -7.789243751418432 -4.174686394657487 1.7807970918445164
652 -2.542003193350775 -1.589932966314128 -4.861473985524681
318 -1.7207191536179907 1.0407839597909387 -6.161677481291129
87 2.9793417708598873 2.179351029109449 -7.164573268578525
792 5.088479332481912 -7.247510883895776 -1.4511056509244702
287 -7.565834573469614 5.397377907137264 6.398326443089936
795 4.961122654616576 1.1473522085866923 5.406208082621202
321 -4.178176555693076 -8.745572603478077 -6.032096577682442
895 6.1197388602882175 0.6002874169789271 -2.0580033271597085
33 3.2177092748713587 -0.36958696002872227 1.7935819284071135
1135 -7.615021812414875 -3.8688490785138274 0.21652830116264205
608 1.8974052296457027 -1.050910860030268 1.8767610020054275
1149 2.170186200537034 8.759099785861588 -1.5300463159517714
886 1.3285585369736554 7.7842739038586535 -2.6210353394017663
107 -6.830654490916267 -1.0459101272648106 4.294754000938084
519 10.72816787389731 -3.096630011131436 4.527343730496351
578 4.573478081451376 -0.252503181768774 4.487912890538796
637 2.149583620817861 -0.4175418778326944 1.3602464266345016
567 -1.4260983252534558 -4.334154346312269 0.7151857919745976
610 -9.061962139170944 2.9159138789539325 -1.7105312980534682
9 -5.330154001705209 1.5552228059679856 2.4102605422903545
1213 -0.3643236276387239 6.481463373467753 1.209282135305501
395 -8.649575558382594 -2.0421339986900393 -2.1615214194329497
40 -3.508077582297538 -10.217488421676391 1.8081730219298298
620 -2.573888229814278 -3.474946970418114 -2.810076236847629
1380 -4.924973277956433 -0.5481247593511 -5.24550806464003
137 -7.133445053356391 -4.1336185528129485 -5.583337541846699
1101 4.570026077248312 0.4664548055660717 2.3328202577350305
625 1.4471187444273372 5.5566786057437545 -5.963426423398812
1067 -0.04064387405707724 4.159865081006201 1.5137462803845394
516 2.025799762315068 -10.563957717670055 -0.8162979942041296
596 3.0001975811418875 3.5136014412714203 -2.790540095395432
270 2.762369126077261 1.0060301243303567 5.529632059272546
591 -3.781369673085453 -3.500466044682647 6.539986577430686
598 3.114449007463298 0.7467779543794022 0.2374716908807707
1195 1.798549652534892 -7.802636353084738 7.066048840008826
649 1.5283572722542123 -4.106483660370447 4.0710720092550075
1681 -2.1933599353595676 4.531109517441304 -3.5257557124905596
499 0.06776805092522427 1.0177839880364297 -2.421380296987321
334 6.800014667207571 5.979769600136489 -1.6668567301244936
1582 -2.0598732264788704 4.19466665495658 -0.8596509525501594
597 -2.797193566880746 -9.736155790430645 -7.336829311219133
344 2.797293325013376 2.437031352720877 -0.1484699922494473
1043 -0.7832894632779612 1.4492003632124124 0.25624727890639815
312 -3.5185710977260434 3.0351283029905645 3.0123306367428744
141 0.6616564578717412 3.7085239960589957 1.8596545991778564
915 -0.3254900182019584 0.6741921522566159 4.075907722905932
317 -5.567810943745503 -1.7725305374442766 -4.2605741863287
1529 3.149258225544579 6.272464175314215 -0.15963132418561238
744 5.134077170224512 -0.28961343645981236 1.7038665388600331
565 -1.7748875681591496 -3.771863638426118 3.6144444671545797
557 4.495392173601861 -3.956893141594082 -3.9578479548490417
1098 1.4970070725088545 0.34217961737142644 2.3397318005800947
1048 -4.216776288615799 -4.037016097343418 2.623574184124876
273 -0.6087061344841639 6.613112895252044 -3.591123357220965
472 3.680164074179127 0.1817970321344779 2.652980104684512
1344 -2.792195432937685 -7.243932077215955 -0.2540886908988713
1579 0.8350551834665846 -0.31294252002867073 -0.7734845437647877
719 -0.6836137581342867 0.004107940353758978 5.719715605310458
1253 7.946801953559597 0.14153988462852954 -2.490151413951584
998 4.411964568361021 4.824582746003789 -1.5826190931045283
335 -4.280233801045071 8.7011683128137 -5.144431355303521
653 -2.18795652698609 -2.5624588275387983 -1.003742733770698
1145 -0.6412016548123 8.35030311063306 -0.8773215619577384
859 3.0706733433913143 -5.297949106810827 2.1477906313586796
864 0.5087606721513459 -2.7522879433602654 -1.3966433564677592
337 1.0563725293458086 -5.85273765027488 -6.332809665688991
616 -3.798855116689743 -3.889190154434718 0.9212823423854445
348 5.330715839918664 -9.721910624630146 -7.015992268847094
1117 -7.7926503075725915 5.636394598855989 1.7242928339767776
83 -0.33318487116660395 2.2190993997844526 2.789990874598526
82 -1.6181623996427121 2.226122568000028 -2.539560514828029
949 -2.1917801745169405 2.6053236294449604 -2.4161089225904253
764 -0.09698711915604873 -0.47950570047742663 -0.0963264445698378
456 0.2835429705234822 0.670610235763308 -0.003303032959344431
809 -1.7077840339965347 2.793080056448358 -4.035302992677599
406 1.3894564514654124 -2.577072111671834 7.110312893904341
42 4.088273481239815 -11.303381364248683 -0.1423169007418226
410 -0.1871638091062093 3.3736254680527615 4.974516269309497
1024 3.3426878726327174 -3.832777648792863 -4.952981872555994
842 -5.245580390561117 -6.52931223083912 2.209228250442109
1208 0.5933439335431849 -1.6063702901660375 0.3060022983155077
1234 0.8060068622797051 4.5770199245176775 9.099495082033497
307 8.325733118810668 -9.097500726775563 -8.118879345489857
860 -0.6032868823630527 -0.28368344821274655 -6.764813221460325
681 2.272383236759362 -1.732823211760618 8.181190500962407
939 3.373012335138261 6.644289927580686 -0.375707448989268
687 3.396373905742604 -2.4675064503791257 3.656344887351442
1368 0.297958156377681 -0.4432125764651604 -3.0330538187497873
907 4.0685261206680945 -1.6294817878845127 -2.4386352619503464
1053 1.2714341870410244 5.793676441955799 -0.625059414479278
467 0.3242018174224448 8.963686308829107 7.225354300151951
999 -3.8688714249558056 -3.6818007854150783 4.778958301839195
1217 5.319584248333002 -1.4290823798147876 4.295576263961538
932 -3.7448302515952676 3.978629795699457 -5.768296333941462
784 -1.963734523960358 8.16673376129671 -7.551650296309711
119 -8.47396832601513 1.734847121424481 0.9563169574099379
574 2.001669060843346 0.34279608891841845 2.8615629550952795
1178 1.6737268735153132 6.573695166787058 -4.76144283156995
413 4.470064222504281 5.351269675487097 -5.1213894112060485
1954 -1.3648334442909253 -2.957371569938149 2.9299218575207995
828 -2.645467074192149 1.189927184007683 -6.790854097166256
1378 -3.1989141927244096 -1.9362513961566659 -1.0436116013572376
35 -3.9459033743641894 -12.855621561487785 4.970343889145992
296 3.7475473280725278 -0.9087028328188468 -0.7251794695969866
295 -6.134287878114469 -3.511017180339034 -2.203165480778447
826 5.095111691849506 7.010406112347399 1.1751475123115351
360 -7.294331844771812 -0.5047940326887921 0.714908143784745
643 -2.6460069664014787 -3.330946635059857 -1.8962100274914513
145 -0.919159422625828 0.06755169007863693 3.6887263818351648
347 1.541140175752429 10.339898576330263 4.644882136204647
660 -0.5817878352885206 9.305998814075608 -1.7068420982022585
647 5.322368809651622 6.0492385064962555 5.120198511835401
330 -1.7626575249414869 2.457911799122969 -0.14812848742448662
398 -3.781642329153148 -5.657641139607421 -0.014611368530824252
1338 -9.122413207430634 8.83557134592156 -1.9548820275853205
468 7.119970074501735 0.17343627423690033 -0.6824551383475226
973 6.28077380998223 8.08717125723782 5.930529906219224
968 0.9742249798639552 1.305829178228893 0.5264764369169743
23 5.360308223380375 8.230631128352304 2.4284119612607
938 -3.819211852521688 2.4180909623551456 6.103263016844066
52 6.421268024827281 -2.958090582201899 8.640727043529632
315 8.002397004603415 -5.696231349422272 -3.9656551072866986
148 5.268148600627183 4.6323425570702295 -6.157036660388612
1450 0.08444084043486322 -6.693071353322368 0.28354853608685254
1248 -3.6973770031129685 -1.0383599611610177 2.072156466039993
1109 -2.2738561862761797 1.061318391037207 -2.3928197470204
362 4.414621493373742 0.25777542849561313 11.461328466450023
363 -2.005103770419294 4.036408772777967 -1.3377863845893505
587 -1.7201666950374879 2.1474577126326286 -0.38620881332928625
179 -1.7307954017153033 2.8983511716212935 2.0451353346422296
156 1.8379133160825505 -1.7764150481535825 -2.127333325050401
1437 2.5026592790393565 -3.236305116822403 3.919215187287134
447 -2.459981233045512 0.03550895172011135 -4.6979654360274345
151 3.492321344550374 -3.518318043127108 6.048244268748852
832 1.8109616035372968 -5.04237695092555 3.577734893967358
185 0.3557826468221573 -6.565517433150296 -1.7853412252609482
1580 3.381487112147552 1.3706765774078042 -6.4718887485074195
892 0.5029809970780562 3.9088982931300196 -2.5455378229682033
960 0.8073470425793868 -2.6767617931097667 0.21588523207011756
341 5.847594430074139 7.839369789360531 -0.10863886874144735
1977 -2.1567303774969453 -4.378263050225928 -5.693118054095455
1410 -8.291795754377604 4.41092419812895 2.311556392961199
431 3.3412680799811336 1.5401837991398966 1.0058720035619646
122 -0.7976474029591725 -2.401568379805134 2.0125373325448557
223 6.321456016141926 1.6797383685544036 -5.312676582752545
614 -3.100188201243633 -0.41032579353428783 -2.502406198147502
1602 1.7888743729974377 -2.9709130875210055 6.4772714650246535
353 -1.1439001560586162 -8.033946512559188 -6.588720080666213
1907 -5.105324631930621 0.44378928518205707 0.5238959502046573
635 -0.8399618037353009 9.453097531600326 -4.384814537125277
381 2.2900282151137503 1.276452890277418 -0.9442078555568479
927 0.019328523926591235 5.544298087726183 -3.0414908109476553
925 8.601267826307105 -4.0874898160836945 -3.691041019561661
922 6.175235031781179 -1.7048410931432574 -1.8604086974197132
679 -4.002198489057403 1.7701630316271295 5.309538901464952
483 4.112456858016966 5.635318151386513 2.627392584512807
1110 10.3009843229084 8.760120864964403 -2.393084842362988
1133 -1.2267483235280088 -3.859581728461075 -2.7746102812747155
801 -4.491488863237025 2.6886461460312314 -0.7490458431987648
902 2.6312304809839775 6.305373634449022 -5.151891400936577
1488 -6.63227695303125 5.815653513437862 9.337967006624107
256 -1.8033271993272006 -3.3785619807047786 -7.062961048606697
1452 2.731276243882254 1.2302467526404035 -6.705982142293586
3 -1.9014648440175856 -8.773917926944579 0.9228205531359233
977 0.2513366998526551 0.6478889357370513 2.4910064941010166
700 -7.79084860426563 3.435134172210732 2.581531950575583
741 1.9381425400413839 3.6758487077460646 -3.7447053313009597
934 -6.591487235258828 1.925914414663198 3.7393338220544328
683 -1.2037339230348794 7.663372881497733 -11.049119424432199
1486 1.4020005840720746 -3.0237869745774484 -1.4286538087264753
705 -0.2752848159352164 -5.690681429720377 -0.7304678361115395
628 1.8815203906670808 -5.560523785285306 -3.621201994704575
1487 9.754659976589403 1.1031117670743447 0.46960318974273807
1231 -4.306233387958285 -1.9792617556995573 2.5641337870922203
460 -3.0990812047975003 0.33138789234923316 4.621541831221297
390 3.907614337959113 1.4265453620524964 -3.166071378628349
1690 0.8815226732366617 -1.9408158679405938 4.153588211345263
651 -5.340945008852949 5.090517264193445 -3.80689785278987
941 2.9584197081967356 3.0053798799157216 0.37127959946236516
1738 2.2494782925555468 -6.8751679960957555 -7.218169242072482
944 4.329767292824099 6.023926956007592 -5.486575139892844
1255 -9.338724688611483 -3.62577802101996 -2.707868843595258
420 1.4335388393566435 1.4932200000252578 8.640879841676188
979 6.659437155268996 7.443546746397289 6.405891057604505
678 -2.4618317053193737 0.3255950879299396 2.8583611560606954
1687 -3.4021232491383717 -2.3665946135353004 -1.8914645475788634
186 -1.1842231667221081 -0.2527845939606022 4.398421179944424
1191 -3.491074388355921 1.8627529479711447 5.148648953553119
974 5.856422537765228 -4.948296179091718 -0.06071472489740094
184 -0.9406888563779078 2.338585476015367 1.8576767890908128
645 4.501400511181299 -5.343069306333689 -2.9077939327122366
774 2.9680684264926365 1.5149546492994483 -1.6981300049613515
81 2.3365504214066886 6.17877302904226 -0.7661752146483475
969 -3.373072355631246 0.4333418654863845 -1.7676800152706291
1788 -1.2193090226950765 3.5055850419866745 -4.304168262818518
670 6.452046480186436 -8.290787244512567 -4.058638140477227
386 5.2458786131617074 8.951041482787284 0.9039101253681686
601 7.73777400838324 6.850086245687171 -8.47669303314577
690 -9.625043559971052 3.151213852425461 0.7528504561620918
885 -7.40831797376604 1.1029370097139568 -6.561441097443399
1503 -2.1458350082234716 3.2757923088284326 4.1107912529450115
1041 -1.0253178314162386 -2.5173980364343076 0.5498590619565898
911 11.475181340233702 3.2959476272761354 2.2819315003829903
1536 0.36278046951741777 7.253209278016693 -4.64192178745916
696 5.199237087499163 -2.2494074582842885 -2.2789291478136917
1466 5.261710963682002 -2.9114572065320705 -2.193360438964423
1158 3.728542812500816 -0.023226864017464162 -3.415326374618764
2180 0.3774393968180243 -1.5416766548543184 6.002261971203048
437 6.861976660438733 -0.48146617501718214 -4.328664054932355
175 0.9400007765459683 0.7558955771095033 0.3314671079363864
120 4.973083914626036 -0.9003719023744151 4.016155853533339
1114 -10.261277204833723 -3.42352518577035 -3.6287856649933365
963 0.9925561852805924 -2.8701377071963914 -6.3020933013581795
824 -0.6008966309581041 -2.01467605434194 -0.2928887262271128
190 -1.6459429409647697 5.3919512908918 2.282345629762361
1186 0.12625932349894559 3.557973361791619 3.1372573470083807
1192 -5.860223165071863 -9.082036664556588 3.136325282580882
980 0.27346768708523256 0.07190574913975475 -7.139478784497981
372 -3.0365866589818964 4.073666454044775 -3.3349321175706477
761 -4.820597006094082 0.07415167002475938 1.3134249155006152
1837 2.499703487859454 1.9705321856731686 1.3877605542729758
736 -5.588146680877399 1.532030951795868 0.8248359534074255
1745 5.821752857147157 -0.9938505816842345 -2.134236563719943
1246 0.1467586390132774 -0.8169873232940769 1.8402787322545504
1727 4.52746345019568 -2.901454530552109 2.656401097687855
976 -0.021129360766067553 -0.1858407603615502 -2.390650531253634
1189 4.675168656322254 1.501448965413886 -3.4171619945415737
838 -5.059770350057556 -5.7641473766761635 -2.753155659444175
711 9.615216927797427 -0.20756675178016312 -2.0016780037827044
51 -8.017117591692504 2.9620586397312354 3.402824807924403
656 2.333522921315992 -6.266520616046652 -1.5454766861759193
677 -7.956968549134105 13.326290590357386 -1.5479044095411711
356 4.704923346592247 -4.865679361662741 -8.189913545375179
1483 2.958300748351045 3.7471912759248287 5.02565678954277
586 -4.655076812080612 -0.6583437876066246 -4.6835472179470585
283 -8.090781902031475 -0.2724968427202174 1.0879747725697877
485 -10.962954621569692 -0.259924162395673 0.19879382565328008
720 0.261651359081861 4.342389107998045 -4.185990263157096
1400 9.285576239836628 -0.687137931917496 6.907841968881192
309 -3.3667940200392885 2.1680591603275277 0.7354882632632408
1000 0.3981263644886463 4.097188202308904 5.910355526495259
1032 -2.1928140576547293 -1.5000723494499077 -2.022046021204506
593 9.623594379159291 -3.34320214494174 4.427372844465763
576 2.7805906676151833 -1.348022864140714 -3.982860213410582
783 -4.529667795122812 2.246124727537489 -0.35273624509765933
364 -5.6998569235420495 -0.4934735757841971 0.05284795383181817
1157 7.894519931886343 -3.1066465243349612 -6.291314005343417
1339 -0.6377091159995583 -2.7975787427778944 -3.11303325767991
1259 -1.4057157715052206 0.7973009052051929 -4.794880936646403
487 -2.14386942992503 -4.505183856306612 3.000216321607099
1923 7.166569724036307 2.4550641354384872 6.168614960597429
491 -8.107118886319526 -0.47608976280762416 -3.1939931739320264
1337 -1.5029856319176311 0.4817703910439391 -3.9699731445252335
1298 -0.13722295073153004 -4.050721369900621 3.671476044386232
365 -2.8480880061909764 -1.6034214602354375 -2.83691825455752
140 -3.09784936903494 -3.530855753079403 -5.025835052640451
1563 0.5818935941875422 -5.628175654015385 -3.608766917709911
212 -4.614018675412199 -0.6444925153989675 -7.200573795274674
1541 -4.0863179505090335 -4.549841885932826 0.2728121725731136
713 -5.13817657710702 6.044594884513378 -2.5943610104093184
436 -0.7683499446116142 -1.4301885086264399 -4.414926055269497
433 -1.6888226545394585 8.62728847702558 1.1220744788148633
265 8.200338475178762 -0.20491799249824272 2.016427572551398
1175 0.6118438421315947 -9.691787787316079 2.018793581127691
664 -0.45856590198015384 4.475382672128796 -0.33330093681885575
1203 -5.63567175156498 -5.318556080591769 -6.035806293143408
850 -1.0104175883784183 -6.8508194072948845 3.7544627651112132
750 0.7056784038490179 0.7648646403396062 -2.18542904021746
465 -0.02618891615083801 -3.7532035461975104 3.9248369863646655
1398 2.4189981445832003 -9.460106451664757 -1.3748471998645317
1193 1.9208726446985491 -10.504346588479304 15.897135788529447
717 2.8639750161004045 1.9865944130599424 -1.3255171009108404
756 -5.549111176400972 0.09886968192564478 -1.8736491553643662
214 1.635823280171477 -1.7574689469418758 7.645032792330883
692 -3.1787616233310394 -3.554613743986511 -8.306047756138977
1403 3.092569275012142 10.533179790348317 -4.544763309691471
569 -3.67444707517133 2.3733529531954245 10.104677842808977
1020 -2.8734416844519455 -0.08227407319501515 -2.1215528639658277
931 -0.20534953329908548 -6.204084965496141 -3.210593508507885
1111 2.2022448030149504 6.646462694296909 0.5533417531788981
619 -0.6614496041078407 -1.6211909975142136 -1.0825426282621649
275 7.559252378073032 0.8885448452373969 -0.21035689473438876
740 -1.1666603989440072 -3.322692509793508 2.5917955625136924
1265 -6.407312263756266 -0.6590521258653598 -0.9018440346728906
1019 1.1746743831960056 -0.8545354709656869 3.0325216885949677
946 5.342168484590727 3.6396703852612085 3.9891046796029213
1250 0.4226147741361671 -4.855238107551474 5.166288278183238
1575 2.304051799972963 -1.6262212220334593 -1.595040162655877
1465 8.587434196107397 -6.08040173820014 -4.132668031913441
789 0.5546699368371599 2.246046911314201 7.190254439018313
424 -1.0145884443116444 2.83090510516285 0.9124739298049688
1593 -0.288734227050357 2.602573585543615 4.267407798472892
1139 1.1213144000035116 1.3722978629474665 -2.8600389945651425
1224 -5.273343423524715 -0.3448126530709965 -0.9663851250278188
1566 1.85759886512712 -2.972212025479012 -3.070832994677625
438 -6.076331032998628 -1.8985517206304554 -3.4839453169283088
956 5.357964772941655 2.4706730199907914 0.23455550344387416
422 -5.90931937431736 2.275684703464726 -1.8982509272206836
544 3.4888369629170715 -2.8232389988408744 2.2670733415001703
1446 -0.5792678589071047 3.285893796964112 3.494182027901801
263 5.6410719239823415 6.351488939503904 2.6713577552704155
991 -2.1645565837365464 -3.0881568932142462 2.5129802749394816
953 -1.3645217337571942 -7.658304785247339 4.625951087254451
126 -5.212207907412424 -7.811521011166052 -0.20528918599789608
1393 1.5250151697232899 3.982754464417352 7.17782157290049
972 1.412262208588323 -0.547234619396401 -1.6824039784909135
92 -0.44175520304950966 -4.287877343140242 3.4048354821617495
579 -6.905544380696726 -7.819290572294476 -8.74317216410288
1096 3.415093849477277 0.8346158613126947 4.1361887230299805
560 0.5937644630650717 6.411442903241693 6.689469595274534
555 -3.817854031087086 4.785484984866403 1.4415163120327827
1190 -1.6117373753025863 2.974375635181948 5.945890497588612
624 6.743238033877721 2.199454945251801 -1.4927312131779797
482 -1.3448339133982474 3.650608604686514 3.7025489217073284
992 11.442298142006607 -0.2692322868300266 -0.3840127656422334
47 -2.5071289443858396 3.552016358149777 -4.945445137031742
1324 4.456266159194795 -1.5077690436516904 -5.943223865619403
1205 -7.756468539093052 0.8566487640022882 0.8149061724566022
2295 -9.727255431258637 -2.177296411199795 -2.91222501777882
176 -3.6833551105177764 -4.673950395997618 4.211182981581398
962 12.962446255773862 -2.2740753638675058 4.67814010475182
1310 -5.592226301738094 3.006069315551171 6.141752238030373
606 3.5049694613712044 -1.4975843242956468 -1.8846977127628781
2097 -6.647780403720503 -5.6039907385050975 -0.42211001492298883
1064 4.646939566603866 1.1905806011114073 -0.1606913752894093
227 3.5513515269811853 3.950080433806962 4.236169206132009
1478 2.0909107313606436 5.08294463776625 6.809635079706532
1358 2.507045724319187 7.758732141994506 -1.591236412626808
865 1.7058807546896269 1.421122390439826 -2.57115507042715
894 7.2930800099796835 7.7308958053293235 2.1147974871752897
1009 -0.8150506385475725 -14.731161954299948 -9.058684031490282
511 1.8054549445409733 -3.124266523826359 -2.854042066104983
1086 -0.6725220188724069 -5.801017085228994 0.5289004274503878
1023 1.2783343169773709 -0.526368266007751 -3.678267055243987
166 -0.1738952089788534 -3.231653185262588 -0.15168459191536318
728 6.520676127180069 6.553162512062548 4.397665775469732
1494 -2.796144339757653 3.150781808106429 5.683898424424404
1057 8.60782749292989 3.799749659214561 -1.547199340421464
688 2.499965507805801 2.942888586032551 0.6164803640439263
1345 -3.0101312470446655 -2.962954321415524 -5.431182272036744
1241 -3.233500396290926 3.481579153532898 6.994510223626436
532 -2.335536338889368 3.7861338786223655 5.5897144012634294
760 -1.7276831198887328 5.5445605630121735 -5.366813194182455
699 4.469546999015834 -2.61276355997751 2.049107544619802
1302 3.1670979594592756 5.237757370908726 -7.94039965181601
1395 2.535809961758648 3.937738576960444 5.589779895972411
727 -7.339718233179677 1.8174993928077026 10.567404194422934
513 -5.430616828324425 4.204877775382249 -2.056435332560142
63 -1.0682442442069102 -4.661564320476754 0.6891380333011844
1621 0.47572975058304995 -2.136885516919785 4.884697564914166
1500 -5.009971820521585 6.3580843162131115 -3.2028330617693337
2546 7.3018721328558165 3.1292254152139685 -6.588627087875317
2064 -4.24378387095356 2.164660606816058 4.36749039162008
1351 -3.5346516073704852 -0.928428058808249 -4.662987096903545
439 -2.4126324007592466 1.934300810500459 0.006071836592976304
2122 -0.6864503208624139 -4.613478501224183 2.945594655418533
982 1.003271424889988 1.7292778914922198 2.7682996368322623
1850 6.564205981241803 -1.5900844121979085 5.745688785333039
1377 10.5911760836067 -2.0797257402039095 -0.7076687659481166
1171 4.247453207162001 3.375260841121499 8.655135764576883
918 -4.475258442289559 -5.643866421132402 0.03198478970198114
627 -0.562965090426517 2.880033538328676 6.280429538662697
2101 -2.8042928147156228 1.6617967865176801 -1.1565517895012503
1663 6.3911828909415025 2.6531919010645595 10.55361455168492
1600 1.410827847907975 0.8237216771555613 -2.7912765425697086
1445 0.30521797404055484 -4.279715457042728 2.9691513370271667
480 1.5203341801840877 -6.652408911083545 1.5646860444512256
164 -4.996379992662325 -1.5587760127608452 -3.033975913054235
1318 3.3637494092793605 -2.1468403865322134 5.252146982239755
1872 1.691206626545605 -1.4928611305192756 1.4711799466684259
1389 -5.9458675238066 0.6498077521793105 -6.278156447982447
188 -1.7048227255980768 2.913086489890898 1.8938737050100418
1305 -0.5184952159561125 -1.1323086017412327 11.781658679793784
818 -0.4578871867657299 1.5521484597292048 1.7605007938892725
308 1.393766477271027 -1.4756685296944458 8.952374854739377
1090 8.976682357458676 4.185964516459453 -3.2005091818348212
1730 -0.6759121993316719 0.9761920323487255 -9.284628012458025
1940 -3.8769448330842127 6.831111713828191 5.277947343971165
1163 -3.9141023635363905 1.4775301655005593 3.4913710596870002
111 -3.1641201423080316 -0.22672345602418215 7.080391104449332
2050 8.674089216906639 6.676679661193619 -0.8328904198626165
935 3.702309556145989 5.201149590294152 -2.2769267281576533
268 1.4407719580546043 -1.798191213096307 4.524123518190167
1150 3.3517268240678755 1.9371299859353446 -1.0965955772551148
848 7.337917931232872 1.9503426736463492 3.5768483943379454
1153 6.028305422024234 9.077997034839225 0.11323635774945018
1131 -2.1902281581723813 4.718541168394238 -2.2359096362950153
559 -5.309152560180603 -4.397520280535687 4.02848812883377
1879 -0.26577266470565986 6.23827833523918 -3.0369028408153675
1700 -2.53692648873006 1.4312418649788432 9.62834443643594
1372 0.8745714719622193 0.059816443445781964 2.0358560851845016
757 0.10082316274529689 3.5142603667916568 4.150791026486699
772 -5.545447418406264 3.4431006539814435 -0.33604795998429715
884 7.4519831551740285 -6.597762531109256 -5.432745446863631
1300 2.798938636464695 -2.7320381573923243 4.707763775812026
1578 10.212576869768704 2.4133693753714405 -0.7052705657676145
2402 0.9831790703481108 2.902510488450817 0.40907137964177603
1137 0.3522157118081368 1.6831524939901745 -7.967335071881616
1029 -2.86281927585914 0.13261595328200843 7.377841005224512
216 -5.738875668849869 4.6709134971657775 3.6896705752149948
582 -2.2049774056063285 -0.501140817918022 -2.917254051279395
1038 -0.052362955451554435 -1.5746008614489146 2.2448790025003547
1361 -1.7485905211175456 -1.9793019979950646 -9.763068943777984
1950 1.939390710459952 -0.016943585410724868 0.39785570524499336
841 0.13637875454439213 3.603624602003793 -1.6728858808210345
1349 -4.997769489143519 -2.353550989170822 -3.3467251861434653
1914 0.9652747630162852 8.0452231854674 7.478283218628522
641 -2.3108304401589 0.5421089542150287 3.0811940602351218
1842 -1.812144587309337 -4.7471980842774 4.174367228042636
866 -0.9832555536340271 -1.1638905633249836 -5.200901992660963
629 -2.6717518863401395 -1.1113882064584166 -3.5194437395154523
1464 1.0064153436588132 -3.506358246708944 6.138822598860876
2421 1.671466643574593 6.973746241182602 2.783494681077851
1534 -4.277283540751895 -4.306849278773389 -0.8830500353945887
1787 -1.1926325555328463 -3.7484080210496487 3.8759889924153548
1371 -2.2608427080606104 -6.837514346747523 2.428311455502876
1752 -2.126972944707408 1.128268177083275 2.0228451030575716
588 1.382405511872543 -3.8461722525111868 2.229563955191734
1327 6.186227261938403 0.41820341530536886 -2.3953990957026496
834 -4.828401320309301 7.9971473580782995 2.778848887112402
536 -1.5547726035056502 4.744954554063831 4.364418680030016
1430 6.328213150846294 -1.108443317585646 -4.131923614539699
2173 -3.4882664695828893 -2.6787312775703596 2.9565395407841493
1316 -1.8036527064932526 -6.952576267832397 -5.466015599046765
1276 -2.184704761004151 3.2224594385196648 -1.5697011495395914
1273 2.1942218256173955 2.6894532188654465 0.7596968824300281
1711 -1.534327387383773 -0.8090782536964553 -1.4548399499677922
1376 -0.5942780988621312 -1.233754047689189 2.823456702083544
1773 11.57511361713602 2.3727859588020377 -2.468149217724229
1828 -4.700651439358651 0.40518032503456025 3.4330077569576813
837 3.5304288811819595 -4.738020677482415 -1.3025658974474623
1510 3.273311676872686 -2.3655012429139957 3.868441931370203
1598 -2.3857579511248472 5.7718391951554455 4.749378939185702
873 1.3422187225027904 -6.5306457946563565 8.940443549232919
778 -2.9066035053389236 1.4032084275705374 -0.8941554617987357
1607 -3.0577511567406734 -1.7212580732025242 5.328909597985356
594 -1.1345093767101582 2.574732259146667 -0.4362634869038849
899 6.467920939386964 0.26903469981729655 2.504933582024981
1888 -5.987651944601145 0.35648828441122626 2.5805612300661123
261 -1.6326142850057574 3.225532042135151 6.415472055497296
1155 0.7954476063989414 8.605210265553541 -1.613488206755437
1726 1.929891142572966 -1.4385269009553052 4.740459217306245
1099 -0.21328790592499117 3.1713850857324863 -7.526426182177955
1604 -3.121437608382704 -2.7243910565504095 4.356516139351864
810 1.8662372659269286 0.44422269611359355 3.678148168363445
564 -1.8618028421357091 2.225896121444515 -1.172760157324222
1356 -3.1207079537477287 2.5771490486518274 -5.447732466904169
1072 3.6708807783386455 2.9579686386470625 -0.021061162892706327
65 1.195981678016232 2.7332579732176883 6.6440724187768225
1441 5.45324225183183 3.8742658593855053 0.632059871501907
403 -4.107219862847753 5.454095650987977 -5.15329635132519
1102 -1.6129409238512973 5.148356808721435 -4.361891088053755
277 -3.186645822279333 1.7697982067826772 4.959381203839506
631 -3.3458695495171296 2.8086483240725744 -4.159541823621954
1581 -0.3644787409313106 -2.1825640378201845 -0.17960619111374598
1731 -0.1408814349142004 5.4013837664079585 -1.5862451084394562
853 6.64830455097218 3.81174511186461 0.9762439402271905
1156 -2.874195655057028 1.4689473823360872 -1.3403034653052537
1125 1.1680462667773799 -2.585176750420778 -0.36031550889420266
896 3.439060662322491 7.251944221707263 -2.4352344928801473
1173 3.2575112228528926 -4.39432889160017 0.24959133944073025
1481 -6.724780409323121 -1.3218580193553526 4.229648859993714
1479 -3.7628548958277928 6.837253198618319 1.4788627234948786
301 -11.830678061252353 -5.570481687902064 -2.809164857744041
1768 -0.27622344109993224 -6.2625690162023915 7.026447596081615
1613 -2.3263429306550316 2.3653358436751106 -9.412347002279034
722 0.09221572707544429 -12.012628290137227 9.646702610905036
1513 -4.216853796984072 11.057300241433579 -4.583505398749167
1177 6.988764078846928 6.024702697771655 0.3092414475088991
1366 -3.9553403315654045 -10.455019367838522 5.866353148899073
1331 -0.3547907307435236 9.948286714334488 -0.49911576001569646
1006 0.7904028340571511 1.5463459855133719 2.447836204783951
715 3.931601556016273 3.3568190862291005 -6.451422355815347
1091 -6.592338776226852 -0.8021093772502983 3.3872863372382924
763 -4.9700004721017885 1.364668210558784 0.24898660730890432
726 -0.21521484197348503 4.308943847805254 -4.6259764622573885
662 4.74006393355363 -3.660847896520775 2.984748070239442
1062 3.209265727138271 0.22610029299611353 1.0328569779915913
845 -1.3360870372512454 -1.5532012146599095 0.5191578441396392
1407 -6.873552378399883 -0.13677357017116015 -1.803065221291619
180 -2.13684014753296 1.4393415837334835 -3.7792595217724307
1689 -9.060448094575591 4.203115612762016 -2.7052653210873014
332 -0.5526415775291155 2.632093014466124 -0.742801939097971
1408 -1.422794409854466 1.5204197201114562 5.428966617322497
697 -3.4020398901520386 -1.8674831773285319 6.47978209493556
147 5.264382582940099 -5.098757930698814 -2.637544205170171
1460 6.009849484177003 5.747867987906146 1.4594715987554736
2215 -3.87881879617571 -0.14547224471621265 0.5368885969114711
1401 0.7090185564428444 -0.7008714283547746 5.68059989606338
1004 -2.1486084190635815 -0.4796443264031725 -1.3399564256896626
1346 5.784897239794516 6.4361215056787655 -3.5977661632824316
1910 -9.974440160861368 5.492600712623468 -3.506934616524122
1081 0.8845806484384879 -10.4957510417531 -1.369192044674631
650 2.1489436148429535 0.9954672019543153 3.5944066016241822
451 6.785910429513062 1.3564523885616224 0.145613911391583
1915 0.3861238932741231 -5.366874834703316 0.4464458348858768
2271 3.003168670775028 -0.7867164298312211 -3.5198254343287956
1558 -6.0211802525099385 1.269349603166612 -5.138018867716012
523 -4.441006722011093 -4.461626589144635 -0.7542761206330876
1374 0.7413315651406216 2.533838067126811 0.38786628043678184
1949 0.6409867665544505 -2.0860057127643 -4.825134342741503
1151 2.162025597738337 2.3150118430391826 5.153144521027089
928 -6.5975324351303986 -4.395633350180187 -3.8323367637315253
355 -6.828524511070451 -0.054245113771360084 1.9423811858883093
327 -6.472889740789534 2.080352190249094 1.0734032416661752
1245 -4.102248796965512 4.21887215415661 0.1019703027025525
1095 3.4466829982286327 0.5922663294011166 -1.8831304525212373
1470 -7.0731188517243355 1.5519179872494682 0.1838596485487858
1433 3.1314684575949663 -5.475438599065876 2.554910645333574
1784 -1.1818504063236517 1.2209996116854422 3.422732687825147
861 3.943118070072151 4.251295615476582 -5.9641203137246075
914 4.033941769143909 -0.7621384153045603 -1.2809639869459324
26 10.187932483095484 4.857953110436923 -8.629929677703075
1471 7.876061905564082 -4.9326556942414905 -0.01350210664073859
854 -1.5911970495480803 2.437538449425298 3.5227592707650253
1854 -3.1548930565500592 -2.3594408209906947 6.084193442088711
521 -2.8392509311994614 1.0619862417968164 10.10107289481995
814 -3.321060978714627 -1.9819275099235343 2.058002982295899
405 0.23481750799346893 -4.082162927941804 1.249459498137778
798 -0.05369304168921114 -2.398509094207897 -3.3015966831578765
684 -2.6655762105439664 4.070009567131522 -4.053046991222204
1154 -2.663140641863002 2.5991070729541415 7.646669258115537
993 0.8699410183492652 -2.53199900370388 -0.07916384173264732
1115 1.4577766001166133 -0.10357777704127262 2.3332448844744165
1252 -5.34775651716984 -5.315031979454624 -0.0417615902962586
913 -0.9296584691731207 -5.42576983022796 -5.446253440377424
1512 1.0122871124245614 2.414546557060145 3.3918526746152033
48 -9.8719698845552 -4.549522800333278 8.253633140683025
1475 -4.938091423739044 -2.3127164203436053 -3.1108146370364573
1127 -1.3122548607413822 0.08795110463962857 -3.5511190592045145
568 3.907575386682688 4.610208036526514 0.47870750747289453
1906 -4.317703854764872 -1.4896724009178137 -2.2788194963469435
710 -4.186837532828739 -0.5583592725692959 -0.3457896761405951
2289 -4.408264633199001 1.169025396096945 -3.049650882062384
391 -1.2690922467609482 3.0755417945938204 5.778107674283972
967 -0.7342725945125169 -2.59819039792889 -5.528273230282902
1088 -8.096380715412844 0.11798464501407699 2.134764558908749
1227 -4.960049364648484 2.18254855016919 -1.184609634145117
1334 -1.1804035658426 -1.860075781412885 -5.111816525763072
1508 -0.9840481386837236 -1.8783420134048459 2.366660428281539
518 7.7597872982728955 -3.476245605248684 -4.190574664735728
1258 4.371683984863887 -1.473313436771186 -4.037327889893208
1332 1.8394043034702676 7.514752840300958 -5.428083613808826
981 -0.39740277017937575 10.355331330219705 5.222580731153569
1880 10.910244318151673 0.6315230347563082 1.56220426563225
916 -3.820631289375537 -0.029492019655091198 -0.9940145241079047
1260 -2.4553869090056346 2.656284004350996 -2.586529136429912
1628 4.583564883374929 0.8813200442589711 -3.0601931710938164
1236 -0.6646706745440762 -3.9064672327380845 3.217355256237872
1497 3.9485531226093693 -3.299683116240144 -1.9553994701019304
1759 1.843141021076475 3.2190923507185936 -3.999220091785111
1012 -7.1229122652551355 4.0586252037347625 -4.946390794453932
1756 2.095504135417888 -1.6887006837112393 -2.805429520593884
1778 6.70584140823063 -3.091206276426187 0.7945514845168339
843 4.126523354704365 4.264082257618651 -3.93947612129552
383 -2.2952243746221055 -1.7334938760609537 4.72151812833269
1543 2.6903925220028433 2.5147668819592623 -3.568134936932714
1073 3.480344796342919 0.8673996509875811 -6.1864440903671465
1626 1.8931916500343597 -1.7750040244295613 -0.8424018843243324
1485 -6.115234547073285 -2.798833634182029 0.9410034894233554
1499 0.27751086535729214 -7.8634774404168395 3.789663089832207
1440 9.906908806106 -4.701641171828707 -6.74269148968474
990 -0.421259010906654 0.18943090432668544 0.3856068663300116
718 -2.0454467939496648 -7.250668522884841 -0.06612762728926286
646 -1.5797392212945318 7.2708308811115545 0.22572529524987242
989 -4.3321503408456685 -2.9722886970922238 -5.950036692858308
1219 3.3634597308278322 0.09803589342295192 5.260208997291436
1261 0.05570440158198997 3.787426872788165 -2.0940902438319235
1138 7.971182193849289 -1.906375043084137 6.245695531863319
1457 -2.832930036560594 6.2334057162278285 -3.0282028925424087
1225 4.8084841864086 -0.44839700634420776 0.32074001349696535
1694 -8.00048461097818 -1.5986652359420697 6.0249355655172625
1037 -0.9595169878213924 -0.7714237206138235 -3.9840341463338365
639 0.4672964293949947 3.210297137548086 -3.5055844958921325
988 -4.355780110053888 1.7448477298882779 1.4295341565836357
541 9.555818509165857 -1.9253958826413773 -5.9421569582763425
919 -0.9573184417482106 -3.067305065284674 -8.02643046189727
921 9.594119090459056 -4.2494889248234395 -1.6338106541830035
195 -2.4398573901055447 -5.084298069855972 2.0563833815863726
1254 -2.87433293336909 -6.320780029489428 5.443965692773636
1729 -4.429342922466038 -8.837566963925026 4.317643028498527
1313 -1.5959068989055616 -6.299289755802797 -3.5743976971809466
1307 4.2771993944364635 -1.4026171586223481 6.351679126867336
2234 3.2415656868089324 -2.681509896915218 7.857239335519725
707 -1.2487951722252584 2.444055162406167 4.931705994204273
827 3.986700795948638 0.751306535968505 4.033682145267746
2561 -0.2712937045905759 -3.196327321202005 6.891405109725681
1197 0.94670809349194 -1.8156516574619792 1.6643184968882987
706 -3.861706073197835 4.536530296268884 -3.285902250558965
1695 -4.9434292663146095 -0.41739642670164345 7.0268033534769705
1223 -3.176805796319664 3.9145112666379758 7.9045973340460405
336 -0.5084978805889352 -4.411577132489694 1.1119658469640763
805 5.4240556184780395 0.35945872176879906 7.720612978133065
739 1.126784908281168 -1.2332946499856339 -6.506103972081474
975 -1.6349423297718533 -5.6140498184305905 2.523659136360165
1824 -1.3820296394703704 2.23879755285591 6.695298499082432
1369 0.5656803465232916 -3.5755943350958526 3.9618580469103835
773 0.8370905764086501 3.372530094955352 -9.977534459480033
524 5.102945185436441 -0.9763166657826113 3.3805513512729215
1661 1.5194943472334572 2.136062985351861 -2.0949370380472576
1574 -5.194997687850445 -4.040886938938567 0.5340007369374207
2018 -0.22699030505321874 7.025542499231994 1.2035770231081369
987 -5.618705889755185 1.6973569149974073 10.197663140127352
1831 0.0646329480019038 2.364462292560731 -0.1654095034172872
1498 6.6922237647058465 -2.438640854543987 -1.682352514587868
237 9.959271042480191 3.906040806252005 -6.916889928415742
1683 -1.628044405937561 2.4339105557237986 5.141582532105974
694 4.853811189044937 -8.354295250180606 -6.907586047500378
1222 3.039796113447129 -5.162164499524179 -2.2980415471445728
819 10.888753343513253 3.0376314758445124 -4.102477416095351
1674 -3.6516507035340853 -1.1319996932014857 0.19280844161059177
1022 -3.1611538389051566 -4.290472454097559 -0.3196398157112463
461 -0.1109834877448258 -1.1251091692470419 2.5418092571353363
2021 3.242212840470549 3.8037082765240906 -2.8651815838114523
929 0.6050005696026793 9.9550023266761 -6.81231394103082
2250 -1.9130263646342702 -1.9060243378480806 2.283888500656204
762 -9.238151146716506 2.8844118538769252 3.5287966031839018
1981 0.3870661742444917 6.2475277114026815 2.3030140041252474
724 6.7200401519219675 -5.502756743177521 -1.590290060395045
1429 2.8502874052057425 -7.890969116079144 8.052309228302008
1341 2.6653101483153163 -7.202298823271109 6.109765102064822
714 1.9172347779234173 -3.64911764187342 -2.3704040004540854
599 4.537495053130372 -0.33790858506078914 -11.260748215549693
1505 -5.33678294719482 0.2741521045879526 -3.867888011357192
1288 -0.6214592259348517 5.941746259783283 -0.7552352010952138
1010 4.800465710248503 7.157332823275965 5.017125346762916
1112 0.20280713879238116 3.983309596143473 -0.6029093736389104
2044 -12.138645868396365 -7.373574459444508 0.7816815568676133
632 6.012572922829152 -4.306708590336549 8.292480939423532
529 2.1548857046576355 -5.1689273707047745 1.192026434184526
324 5.647763797613904 -2.2700502783844043 6.774298073518087
1402 4.409479977391188 5.198707911447169 1.700878634680733
1309 5.457070867078236 1.3693363814509918 -2.2113289750180063
1237 0.2840389071819979 -2.031575260693594 1.2252058175748055
96 6.880723632895087 4.146847946605601 -2.6279645090686925
1201 -1.9572304227542845 -4.901014159577878 -4.305158133689233
1685 4.140091515947648 7.104508637989594 5.494814880663982
782 -3.3644193537739957 1.2840528029283924 -4.699768610819931
322 1.2342991489965771 -3.501675381785528 -5.8341470350286055
1554 2.055886720674205 4.089544503126031 2.7084153791340206
1220 8.198812998262953 4.879254076285537 4.763143561621321
1256 4.436787131740897 1.066795772876844 -5.2660044599596825
1527 9.925711418342274 -6.7592876143553955 2.827860393973374
1229 4.336523707907964 -2.0086314086316195 1.0725524420967045
966 -3.845106731447783 4.185570274788452 -0.6886750404006571
1551 10.117782746815369 -1.00542597157124 6.947417211941046
2117 6.392988485981194 -1.2130803157155157 -6.340282340933742
1001 1.6028885194482072 -6.279613503875108 -6.2832210648607925
680 -8.675917952144198 8.899689880713945 2.538342008718918
703 4.232491809271952 -6.70440395528348 -4.065550764047833
758 -4.255536464695935 6.0578553861059135 -5.980739780161715
830 0.5792734830086823 4.12426616541578 -1.747669745758687
32 3.7228749204176976 -0.6415340415606245 4.642992247171559
531 -4.211119689880816 -9.294864338922233 11.96389639062655
735 -1.395625787740232 -1.1141991877225204 -0.5678326933385803
1562 -0.43823381619464075 -4.282132598850996 -4.819337497089679
1199 -1.045282962556348 4.24950931074875 2.207230123777442
1075 4.972717661047872 7.139220111580012 -7.238429318508119
1266 10.100752539512301 2.0635525782667816 -0.19220578852890213
1691 10.85507378342891 -8.064203331782254 -0.7100571430896254
2161 -0.4525236369554774 4.5289479178954215 10.553831440362979
2698 -1.731454882524527 -3.386183004817099 -0.2326361362572889
2053 -4.631379220325605 2.1299436365957267 -10.142061678078889
1549 2.070619878287905 -3.9541288806074086 -3.111564420826943
1994 -2.7172410295545837 4.844964559136363 -5.4751957855062905
1113 5.724733760941134 2.1694923549891176 -0.2775022586763989
2917 -1.8555745628949127 -2.1591972284915726 0.5217700577439033
1548 -0.3729195336888468 -0.32690077999155404 0.7533117575033446
545 1.0112026191778167 6.030756432162599 -2.136392022359557
1816 -1.8427459812710736 7.292343704214541 -3.5339666821293476
1080 -3.1943090123186906 2.3216831767737602 6.932306909934863
1539 -5.78625676165707 1.3767886915036947 0.8531437578991838
777 1.5647872867502675 6.011723559093269 2.138442631309749
1415 -1.5886684768932333 -1.5588855783910995 -3.9125278120496376
1168 0.5824300436867064 -0.976923951131883 -5.497883260303737
1829 -1.1014196494072908 6.41722422960857 1.0697509969036847
1267 -3.2321895221898975 1.236000976065176 7.679919146623417
1068 7.879149585005421 1.017078394629231 4.154408083979048
19 -0.5422547203144225 0.4092367460024599 0.9716928424664163
2189 3.583201645561908 1.7257885811902027 -8.723434072310104
1743 -0.8406215772486944 3.8831188102479937 -0.0963072083797375
1268 -3.9830261507272993 -0.9255857238525554 -1.3483061434167054
1070 -5.369249882506675 0.8155884158172374 -6.733277330162558
1290 -0.9590637978562357 6.208771036893687 2.6643883683600267
808 -6.905159458562791 2.4511398620674956 3.566707215913807
1817 -1.4966036830476557 -1.4558907135263477 4.9763253783114765
207 2.4288104299058975 -3.141692717604858 0.5018742615935421
1063 0.8947615408384739 -3.6412381552247837 -1.881428309622341
1353 2.524984298002629 -7.57291810674093 2.471835454478217
1636 2.258957471012072 -3.374475756950181 2.669022849675791
1760 0.28258328742495553 8.790437901654435 5.774647130874666
793 2.9638156142369985 0.4945858968850155 7.661924005625551
1588 -3.1066326448765267 2.627440074718746 -5.281786294775042
1183 -4.785372512115625 3.860948192545829 3.105335777257661
1617 6.5154411804927665 5.4847144185224135 -4.024241378614504
1528 -2.243194564115294 2.295506923804404 -2.3271872037308587
734 -4.756944494913227 -2.8542956845305043 5.228658070572585
1801 -0.9973831236866162 -4.544384344475973 5.804207167864557
1774 3.718344673201432 -3.788731615519298 -0.27615357554816894
1304 -7.714018280681672 0.5077265509000093 1.2861795213152303
1772 -0.5619645547224007 10.408007630736472 5.0339286178177955
958 -1.1756121155522308 -1.0982954069179853 11.555893920228385
2008 -6.257129115780454 -4.624512481903467 -4.86671190556194
1542 0.20665545829214474 0.4480876711826338 0.5500082761622632
1741 6.280212617613301 1.0368314064903665 -0.14416124111660464
1822 11.043913343940607 -12.731176676526035 2.5666573761796365
815 -6.446643096786176 6.9020431111307685 5.5330752709609285
1409 4.554461583265311 -2.94539208475112 -4.581660022312174
1814 -1.3729813324764126 5.270571775870395 -0.5474587491467959
2258 -0.19617413530608346 2.104099686517258 -5.998353400662973
1627 5.2463486639941355 3.8078404580683016 1.5796755037227084
2354 -1.302789842188724 -0.3759145495377619 2.0646969853649377
1969 3.663735908854967 -2.8457526032392417 -14.119709687713986
1108 -4.9092015586239 3.929707331587254 4.660648338404522
1713 -1.5064008550886603 -3.9277187462878915 1.1644026184027643
1323 -3.051056047078037 2.9105640367094843 -0.8050857139259185
2630 4.308500581541725 1.3645484034086117 -2.547086376140125
319 0.4159274945431437 3.4858109902368124 3.2398837024478113
1986 1.7371729867838217 -0.4055727287571459 -1.9089812518788574
812 -3.1199839813951415 1.0977621558359414 -0.4083088226896232
821 -2.212693439101965 0.059071171432920455 2.959240942713096
1637 1.7220755799773169 3.9932379006273884 5.04972624333139
16 6.060759588455047 2.4121643577167755 2.095078367332726
986 13.07975550988182 0.7111435140392977 -4.1254476465718355
803 1.1320291447559458 4.626482385888045 -4.663291415431294
1076 -4.402763565379199 2.9179830759007426 -4.823396065438333
538 1.8739264603085017 -1.056673087639872 -2.30203377343038
738 6.299641045680241 3.074862266264543 -0.7890095707234961
325 -1.572904672206281 8.226213000604998 2.818298400083732
836 0.7307066254438518 -6.338964395877344 -0.5717605922563677
1381 -3.0355499560907924 3.9878331955809236 -4.915939871930665
995 6.103399698486946 -7.953183833561885 -3.1434586122874384
882 1.4216724886782777 3.2424956455490688 1.3628042096984294
1074 7.988895688813461 -2.1988124129386706 -7.445394806917967
1835 -5.084343493178693 8.581228665847124 -1.743351973885624
673 0.5564356532733972 0.7866558143915388 -1.3847666770902425
1065 1.4217259912569666 3.4460629067767607 -7.250117631737012
816 -7.614441902331642 2.5413176775581947 2.848238064567211
1620 1.3474242685150266 -1.3694286823754294 -8.069067440695985
2346 -9.297304117566654 -5.571987811623674 1.5732303317626342
1974 8.13051947440624 1.7000333934492917 1.8254350546555775
1546 -7.098413711918408 6.883245582859321 -4.622898534729405
1531 5.742528045579505 5.453247782646305 -1.2969998268090104
2057 5.698873609495579 2.687735937634399 -2.5443715198573496
1820 -0.27982067257599846 2.053372093556154 1.3200360057321787
371 -4.692175921538019 2.861113469155871 3.732183770662432
1387 2.4589191628812057 -2.358141847542775 -0.25900287515651865
1165 -7.94989930989285 -3.1200512234269038 0.3602019927795381
835 -0.7156243741914455 1.114040203891923 13.306529497258142
1391 6.266984878284215 -1.9567152122229199 1.184370218605485
2067 -3.036584001186104 1.719702643329736 5.86522338744925
889 2.811636364780935 0.8217477007551959 -0.8729843636238072
1524 -0.22508938188959524 -2.875052352187454 -6.263997740682222
1869 -0.9094628369323321 3.4727395284606 -7.119089808157135
2052 5.468397302085152 -6.2206614061313 4.316061653111844
2310 -4.384959088103676 -1.93675102296934 4.38568076854512
1844 -4.740400023342133 5.0237169735143405 1.7029370453065178
303 6.660173437062218 3.356679728078387 -6.0392700368857986
856 -7.462643595388414 -5.257125595375319 -9.636951492743608
1134 1.6161081506803794 1.9215477291805232 -2.0430890304684044
2244 2.235451552747497 1.3587434337113282 -0.09946075500934078
1658 -0.8542566143919726 -0.15802672223443198 -1.4669857059497053
1047 0.6030253699267891 8.39836697276771 1.9831590225901679
1761 -0.5813475678522029 -1.2384304756451552 2.9402008996627167
702 1.4234974938978673 0.5368462200704829 -0.24492160870329444
1564 4.311362416843376 -1.4279938000545056 -2.7944950872337815
500 0.5264083332409815 1.0430093366527229 2.413581214836878
947 -0.1887889235755848 2.9574085496976745 1.5951921255199537
1781 -4.511010992300245 -0.11789437535989553 -4.750239003116284
785 -2.343488162948362 9.43211870609902 -3.6422452830584033
1622 0.8185985162360684 6.236724852131963 -2.7686113792372926
910 -1.6591701746380918 0.8208750882190478 0.8009593757000278
375 0.013699286126582985 -1.7165477422108353 2.783399177349261
1103 2.8785653932189352 7.573343070690337 1.7260446864544452
605 1.8680689000335557 -3.1125487090897943 -2.931135041339835
1365 0.7994700626533513 1.0643356072033783 -6.752357490366319
1696 1.327188422842068 -1.2614350945523491 8.643392851059996
1182 0.4918100097903579 -6.689736966050214 8.246606235043625
1363 -2.2509981867070366 -0.13835015650511512 -0.9505616416276449
1615 -2.4456103379592444 -6.0001917121624055 5.837713448735838
2446 0.09377552705980477 3.447201426424651 5.247446942857973
831 -1.5165835513894772 -7.365244060968306 -3.8332440809502506
1144 -2.54631794917266 4.061123551539836 -5.550195849058642
2083 -2.3458429754958168 -5.77967367361072 -4.251196201153529
1438 -1.0244563688651875 1.1927443524587367 0.020303645474031275
1128 6.399708456607588 -1.1699394591486756 -4.6428137098347495
1329 1.2289760694124598 2.6150407435257645 3.0734567106725317
945 9.59547237312551 -2.258978063408305 3.6478223538398864
1956 0.7866682347231875 -2.155241634889463 -3.0611197544953
1247 -4.546912636388639 -4.964156327077258 -4.546297361572513
1049 -2.0298502018217204 0.24524967727285432 -6.78054548047285
1221 -7.98792868940624 4.816038333883255 -2.938244445184916
1572 1.4346489635228734 -5.165639855216197 -0.1538347158058385
2154 -2.8620218904260684 -0.8912578458063937 -6.212362756218209
396 -1.0321326821536931 -5.433232003935583 5.507367139237821
2147 1.1921246721485308 6.957814493478135 -7.4823853054842075
909 1.9551023163253294 0.0379956635602954 -5.401700085797395
1449 -6.666519815357993 3.525420181382394 1.5526232296333446
1779 -7.383769466694106 -3.6965100056474536 0.47424602440005714
527 -2.5088649807343297 -0.30137506614068243 -1.9041173093686392
1321 9.510183972258613 -0.2941374822273674 -2.517477636429433
867 2.3691784705211583 2.4660445474160726 -1.4362518732911878
2461 0.9637089649711044 -0.6502551249857971 -3.6102130749358707
1612 7.0284380105951945 -1.7509996197973214 -0.8722253558284745
477 -4.4993148267922844 -4.946839754463803 -2.917407824572803
351 -0.6901833648779907 3.8005058653898 4.383744011658799
1703 1.973483991040518 -1.9755115878780167 -5.210428854944875
1417 -4.660730022994754 3.890033899192333 1.52212275452248
1673 -0.47117140758047055 -2.8372100056143 -4.342002176934492
2013 7.880166221909394 -0.17759890982334428 -2.7518665496129002
1890 -1.4191992492765337 0.11444823252211286 0.005296421486091699
1340 -4.571915054476004 7.386736166950746 4.146145604000485
1026 -4.1372797672409565 -0.8925123684474557 3.1648589811924026
1651 1.0317677898981439 6.463629647767171 -0.6223216376033879
1639 1.3672716905563316 -3.949884852225363 4.638172148385783
1702 6.593347588248593 1.8103992901195314 1.1501401642463938
457 0.5068009111772617 8.467087563601263 4.466380004536346
1791 -6.379500358308018 -8.623416518797681 -7.186969585349475
125 -0.8060539136587361 1.9621772019923331 -7.682600190160624
1655 1.9095052156401078 5.957224342942985 1.377275132128671
1664 12.57295734352179 3.533552491703638 -3.7293189287924355
1946 3.5147453964265276 1.0687735451429907 0.7434582228716512
43 0.6500983756427471 -0.7688329458851215 -0.6265681001217692
1832 1.6861579031260983 -9.320632276727745 -8.027640255666137
1251 3.05795686931102 -1.9568741478133416 0.5204829836478488
1130 -1.3203824297863038 2.633199540356888 1.1185908785773029
1282 -2.429709665260657 3.7696089327161406 -0.2236304853887584
1839 1.6577075389288383 -3.212356751326885 -3.6484434089526343
1362 -3.7548383839014634 -8.335608310295886 -1.256230348360303
846 -0.556007173264221 -3.6207379552163075 -3.2242094943186745
1106 -3.9681861276839303 0.7704193954710614 5.050338473160603
743 4.074324753530177 -3.906747204062882 -3.195355450405842
370 -3.635896373066897 -7.458072835507553 -1.6311173861709307
1677 3.376469560206191 2.897234386828817 2.290684486636258
2058 1.143617828760083 1.9775372759490253 5.5402341198714335
1164 -2.8370648728717462 -0.3567980135498532 -2.748579347784085
2444 2.708180312081588 -0.1301033272822595 -0.289555761706546
874 2.9274495297114584 7.104179334623578 11.74953347101962
1347 3.2121544790191274 5.126045914992043 -5.928112566780425
1812 4.1488354487376435 -3.897803194174605 0.4534281270339924
600 5.296112479299701 -0.14384452860132538 6.654081095887224
1174 -4.253242052426817 2.0636932838854487 4.317557814013824
1902 0.17382041828512332 2.3157586171582887 0.7235589860947241
1123 -4.913779610687027 -5.887918278497608 -3.803498599497058
1367 -2.698553753626608 4.467767337625163 -2.1659433186381016
1232 -2.1618435051681195 2.827159948460844 -1.0174416183299717
1141 5.220396785247742 2.0902965040073807 1.339812878166352
1432 -0.3436942402837804 4.811435876690924 -3.814704854249463
1648 2.3774151505105565 0.15356541231663295 0.003832935285854544
1370 -7.085541056019288 0.5761333039612474 3.073686583153497
917 1.3704435792806948 -2.9999778402918857 -1.8144991279174174
849 -2.2501115133894065 -2.963425047694952 3.5782912097882233
2371 -5.94250179122143 -7.878380509014203 3.8738437418200355
1301 0.21637848380230829 5.754814601613676 0.35229493738490664
806 3.882969150399893 1.1783860924345115 -5.317648899202481
2326 1.1086848969155287 4.556273517623073 2.315922593998613
1719 -4.477745410806326 -4.027923962750007 -0.5903784968304867
1388 -1.1106617626122022 -1.0618435016306425 0.8146198147761401
1119 6.751829802335858 -0.3303791818505311 -3.6583974820880285
1118 10.457989824391845 2.4157215443506774 -2.4709495848119416
1124 -4.132616113832017 -7.770214045725779 -5.141046366333298
388 -0.2986520389289693 -4.85232533462789 -1.4715437888459946
1629 -5.121930685488921 -5.948816384402928 4.471758721398735
1984 -3.5737140428481267 -1.6273165020384122 1.1969568385830958
881 2.755598491453857 -0.48684557649224985 -1.7046382796642021
2197 1.9136517428353712 0.00804628100221192 5.292932599258158
840 -5.763060430199466 -3.123249586765748 -8.70953434627394
996 -3.3611788164364134 5.163817859648564 -0.9394728072730036
1436 -5.270348825287468 3.2897963003681667 2.800732099908577
1903 2.0489828673174553 2.8574071880777803 -5.2892043709795376
304 -3.2215526152423495 5.669210745309169 -2.127219937574533
704 -4.339589345998649 -0.16840124365290526 3.0909182581382058
1737 -1.853898127413462 4.716622652529436 -2.4030009102387937
1056 -1.1276315659306022 6.684812118177903 2.721771096134929
1733 -0.39447285522359843 -4.093227470930919 -1.4494270968859835
906 -4.220086631960753 -4.075827872932882 -7.753739869575733
879 3.375130870129401 12.126419087710397 1.2651633704918448
964 2.8954935621071938 -3.840775212618422 -10.94032128223448
1050 2.7927250252954376 -4.396060314757683 5.5348328379015665
1570 -1.438031028808674 -4.220375227720908 -8.196777378581476
1405 7.282253048906678 -3.993782884040256 3.891405665127274
1161 4.769532200267057 3.480898326380944 1.7572037975691897
1383 0.11390794366152915 1.221093763162891 -6.032954234798124
1385 3.9298433695337858 -1.04165839426839 -12.197522562845439
1605 5.050220479802439 -5.731877661033306 -6.487450546078901
1721 0.47063335637788134 -4.1900102846232725 -4.2533168257044425
1704 0.055395360064207984 3.2833643074408347 -5.091012504176587
872 0.10582646828035829 -0.10254801247226235 8.890557493336297
1983 -1.6517010831059051 -1.099806271058846 -5.844852603236851
1148 9.108113529361141 6.2863571226651 5.368216241812962
323 -4.232694327507668 9.681300352133828 3.0538644719827515
1404 1.2972915926641762 8.105366641023027 1.3179751594056563
1918 -10.866764581303348 -6.745018079116033 1.611068252127385
1146 4.005020083182173 -7.3240030342486575 -0.918480341815347
1643 5.388163799780893 -2.0168400687305135 -0.5154585810237534
733 2.784547667949449 5.670255786808078 -2.134975090973025
2596 -6.694324532067118 -5.847257075202283 9.506380816245594
1427 6.814978669703787 5.432200320955665 -5.558147967069151
2969 -1.1542835073537134 0.9317841099415103 -5.779788910614337
1944 6.083515046755359 7.511442584895126 2.4829763306042003
1472 -2.9669982935024395 -5.890503785898939 4.15217315580333
1051 -8.138250665342357 2.886967872637761 0.32666421058996525
609 -4.386573705321273 3.291903275689677 2.309966358163142
1821 5.152183070814833 3.044144996468497 -3.3121720073257066
1742 -3.2724946499732557 -5.534386717302349 -0.5716829357980285
2320 5.499234345520392 -5.200605544994539 2.364595529049674
655 -9.067387177811211 -0.977180696613932 -0.1839161897039261
940 2.680223470361786 0.3182022181360904 -4.357890007841772
1243 -1.5333441603208187 -0.012405323908704843 1.2695858789085173
1997 8.850673610671173 5.812009115767791 1.1745665473660338
1018 -7.157417551079801 -2.5364109282362213 -2.4472317140737867
2114 -4.908758574410205 -0.7347143817020415 3.8809695321861333
1962 6.241899076274193 -6.380989317121589 -1.1582476463688542
1364 -1.4582528218611728 -0.49205291525726386 -2.0689362445330204
2056 -4.20408377583269 0.34211011676973774 0.9769334431018858
1021 -1.3983348595761322 -10.42302007443634 10.116121689803041
1100 5.566177666732102 0.0876924938960214 -4.35728062784069
759 2.6407106089272503 0.35645001003282784 1.984534861114281
1328 4.134893538387337 -1.648010372408195 4.1986159416054845
1654 -0.3365166405612337 0.1916121842951298 -2.215003976526421
1809 5.487306757995473 1.6195974289345187 0.7172822923801353
1458 0.6641860734931154 8.728831242803812 1.1107857406029713
1275 2.077668904392372 -2.243219646989697 -1.7722814199049939
1007 -9.012753972937409 1.3388334894874057 5.2896971270024515
2019 0.3906628634924045 -1.9334446847500335 -8.968667740927765
952 -0.2789545029132563 7.007360684841134 -3.4368169592305224
1397 0.4646519930775068 -4.676378337779748 -2.7170289649259125
1005 4.468560822330094 5.935587904992448 0.6660710513623491
1523 7.0653150350966385 -1.0833531295665573 1.6775873302930586
1846 -4.78346313430562 -0.7131327433120327 -2.764062679162867
2085 0.49871860088564346 0.9473834399482952 -4.372878756591405
1762 -6.771685516339363 1.205859785759047 2.039477747116495
1766 -6.137179223990587 -1.6663571756344135 -0.8668690690329655
1295 3.99235791829641 1.0930315126106316 -10.029207742574041
2435 -5.411627050078592 3.085700029146802 -0.04391938432274012
1308 -0.8423888178365958 5.758421093341271 -0.2835840435398108
2535 -1.8196646654894595 -0.8566128932388564 -3.9192988029632985
622 3.8785829571335455 2.090273164980905 -0.29855223508036866
669 -4.565468724076179 -4.964607789118104 5.6065359807110315
2741 1.094210211376634 2.6944459224144683 -5.845892676122913
592 -2.655688387833908 8.72814384789414 -1.7117761522339565
1686 2.2216134376218224 2.3127891062834602 3.5594095319603105
951 -2.2501368888295685 -12.279423690279028 4.02086490658745
476 1.3039231736971428 -2.6593310061982973 -8.961695673579735
2016 5.449793662093954 -2.359377856722708 -8.430591654897208
2068 -2.924441685310701 -3.5291255628347615 -2.317845447375882
1459 -4.0462889259605905 3.9510209140866843 -7.4446524142266215
1160 6.60446469845377 4.684485404544385 9.63791573058304
1455 2.2880569785954945 1.1915917326986512 2.896521491932722
2362 -0.24478055212943417 -2.6270921761367183 3.3887846210086994
1477 4.728492276580045 -0.7412821577403963 -10.325732276388782
2810 -1.2784918938504586 2.12721879744466 0.14250181382565524
844 0.9604812898158932 -3.64835588335758 1.8216226206093051
2523 1.1612151377388635 -0.9729866269674335 4.320086528391326
2116 -10.394601444268522 3.4961068350684 0.6729724201230978
1932 -6.834527023582659 -8.176279071726974 -7.001350197366003
708 6.131155068516175 -3.5288668824521685 1.4811047011150955
1054 0.5553291265714345 0.6537992656988292 -0.011502989468513997
971 3.2304559254752743 5.806532786003228 -0.6751316338312026
1444 4.478156432510729 -0.0416419864802825 -1.4286167925183928
1764 -1.2563551239006276 -2.1681319193447997 0.2709664088546242
1511 3.5586864870556982 0.7431031795859865 -2.2993282602361136
2533 -0.3499348237358796 9.07896357993568 10.911939330837987
1967 7.03508924522007 -6.857856974476357 0.14084921679624907
794 2.792647409222795 -1.4247816664611521 5.268471302736354
1770 -9.543041602331868 -6.0474711000932695 -3.3312692872178196
1228 3.070413742662748 -6.825218887791805 1.7531619511480536
1682 1.7050612811932029 1.9390134338854934 -7.0303899166777555
1416 6.2218429159396695 -2.6992142949921547 10.258321219363589
1083 -3.4885260005366145 1.1656527855196968 -5.404764634852582
1249 -2.6913179362800204 -0.6368015825469111 4.090912478014411
1943 -0.8582791567675236 -8.120676612370126 3.74962439042641
2404 -1.2829968698224787 -4.946361582603728 -1.501147937737612
1769 -5.198976854110973 1.1346874818291894 -1.6470335803578324
1525 -1.0329341737998154 -2.8671291283803897 3.69530034366835
2284 -2.9156519730716974 4.214993424797665 5.32805689607425
1921 9.069145583567911 -2.589842729002589 -5.8500704367092204
1034 0.8471418877302251 7.029425558776628 1.2493224796330993
731 6.466260218474338 3.315711629164835 -2.298656335287931
1744 -1.167471062374172 6.734996839822419 1.144864249301403
1279 5.651144519509407 6.900000224699201 3.8397517970879265
1699 1.7897769143625732 -4.001940534511521 1.5769964731317923
2765 3.2548966573940628 -1.7310163760858677 -7.979865350339722
2241 1.383389710546111 3.6917130503559132 -7.6732391176502075
1424 13.23857265502255 9.914165448791131 -2.7359777162699914
2210 6.071496060201748 3.4190468551463074 -1.2100508924231506
1030 0.9887496143779506 2.1369833085490106 1.251881387524687
1714 -0.36111346867870237 -3.142752695431455 -2.3388773978047164
1045 1.2683835782768438 -2.3616434759456872 0.3364318961253622
2023 -0.7055710203891663 2.235195271412654 -2.8401211001894087
1955 -1.1207168176587634 -3.78173054059421 -2.7183640296128475
1649 -5.266385683685477 -2.30575086276491 -6.457554924309681
400 -7.9911190223813415 -2.96174905634204 -1.616945188054458
2039 4.5974933393548305 1.6999489934351457 -2.446006199826023
2759 4.9762438363462556 -0.5261870390912725 7.181561454791828
1489 -0.9553152631936856 2.2606193287222944 -0.1432792245388352
1077 -0.09189379021189016 2.7936115120453042 2.7698249166886173
1042 0.34576133120529273 7.138040586817252 -7.79919994346962
880 -0.5022063141346702 4.205727763935929 -1.3324595568354405
589 3.692305284076348 -5.806567642644724 -0.4015706341949854
1972 -3.8631710929111307 6.054863636452696 -5.254960465638584
985 1.986831132246001 0.6812725060922227 -0.7368498627531634
775 2.5527759168792943 -2.267061991311588 -4.250752236254433
1454 4.178239561293314 1.040690438251668 0.12443669172274126
1333 -6.403589689159313 0.0391815107865269 6.951093450548761
1920 -1.8042182232377557 -1.2858466067048753 4.539088578286334
2103 -2.743994684964113 9.431012029288416 -1.2226259076970463
1211 -2.4503555539185795 7.699125078476201 -3.6039112090460246
2233 3.3384768071117854 -6.531041537322078 1.3935726441418748
1046 -8.750411135088523 -2.8253372002157153 -0.3467369342620166
434 -4.576095296398479 1.7983501362121084 4.954298629056332
654 -0.9435858067153737 6.793602589936335 0.46672125648697277
1785 -7.1305385718556185 2.948103872046993 -5.4659447718829455
839 -1.7082304165686193 3.9205055632711456 -3.1536667308513597
2108 -5.0438734301347425 1.2085131394166553 -3.455118778484754
1379 0.3880038748157888 6.761049321619919 -1.6545518594485884
769 9.229271532880734 0.32801831913308166 -5.44343263368848
1281 0.8938015261557752 2.828692805416224 -1.1050887834087642
1271 4.489393483227523 -1.9760207431997914 0.046234859333758774
1561 5.244602766003889 2.975353753986478 4.975853138497366
2135 10.313880400840764 -2.6136154578576196 2.666524728142025
1085 -2.4638675698199806 1.6380403476752208 -0.5553156072659912
1104 -6.411970453249067 5.246410868008938 4.043845931252783
1758 8.80036947200683 -2.5707258336989276 0.29857244908865355
1399 2.417435465295592 -1.3973237327568293 -2.5225646023680297
1618 -2.5248956194137606 -3.925065245920516 -8.364872200909558
2785 1.8783691439867218 7.963740743379677 -1.081597498713439
1384 -0.8935563018023427 -5.810553990938404 1.532294331330857
950 1.7207731401278599 -0.2874910378264845 -0.11753178343949544
1188 1.542680555061862 -3.393058492011443 -0.2088180668077162
747 6.603193331291636 -4.908702710213493 7.579950956786697
804 -3.6698520309416542 -4.734377570992228 0.39074154114495374
1670 0.1736387552202467 -0.7674686611201651 -1.2817118476378415
1640 -3.5943341966761757 -4.730895106151447 -3.192082367277532
2442 4.2335516515092095 -10.387379585619776 3.408203330937713
1520 -5.176897538719337 -1.1634027672507026 5.172248169953948
1447 4.676980183461146 0.012930021402969874 -2.101491239208018
2024 -0.8956011182854176 6.148873779486295 1.8571195250441803
1033 0.19741928699532302 1.1276576262023708 -5.196919997917052
933 8.47136109739089 6.173106240075411 1.6886701624925389
1532 -0.20756084979291978 2.3603202877438085 5.275054061343128
2298 -9.52659885616691 7.044976970127218 -4.395963552396026
2129 2.2882045839429055 -3.2405273986574135 4.6157183462432485
1537 -2.202691836996027 6.153998406358615 9.034577090823854
1517 4.959012394627255 -0.661319579635653 -0.40471459344487554
1557 0.4154908291683498 4.902753353013413 -1.6899503647835008
2634 2.459981751817403 -5.898041081595994 -0.5151397625459136
878 -9.142969223783824 -4.408439500360136 -1.3285576739159233
2257 -5.77026178421419 4.244951436120675 8.18053841120274
2291 -3.5239009997845643 -2.1183159150081203 -1.334523919423718
2040 -1.3955017382453545 5.098458677026959 -1.7206985510528068
2150 -5.349928342426935 -2.1999101581668032 0.3182534788848546
2313 1.2246275077911943 3.4269209196208803 -3.3790544562850715
2111 -6.438337322077988 1.3981972567130037 2.3776307730302526
2585 1.2557690183104133 -2.508585829306644 -0.19391124874477192
2230 3.4046426171282773 4.1337534993095035 -3.048186057231836
1553 0.18844578173865642 4.57236102306975 -3.177910809377517
2290 6.913949575837938 5.065075011516061 1.8379367429260092
1013 5.408791644244754 1.5184710867637168 -2.0131089777266427
1799 -3.0181442700931354 0.8663657778338706 -5.258855694172117
2028 6.114887167062645 -0.6987648596513771 -4.084475562493487
2186 2.4715847138110396 -0.7413073968491382 0.3777714889541579
2424 4.646083820918546 -3.1094691123890974 -4.287671796047403
2033 5.332123948565003 1.3723902848725984 -5.429465769543224
1194 -7.96198516870295 0.6505311226057799 -6.525681833099397
2314 -3.250394894341904 -2.521132610982416 -2.181302155654159
1547 4.448185205871328 0.7816870310981853 1.8281358959205798
1927 1.1556838078946812 -4.982708605440546 -9.434114036176442
1476 -0.7579203915955999 6.572347505385421 -3.675682453738092
2293 6.319092484148869 4.864671791362992 4.91176457485096
2152 0.5107424970341679 -4.218398057558833 1.6643742880976058
2214 -0.8964857378989807 2.8399417213999665 -9.57982752481694
2086 -0.5893011906670699 -3.6063606302058866 7.874184203817615
2988 3.2564184320983527 -1.2948769680303889 0.35075433233660724
2499 -4.593861655694636 -5.618868769765459 3.538436246142989
1753 -6.422753000373512 7.084318867175128 -2.508498491278915
1868 -1.5195405130030215 -4.802999503658226 -0.9274288700740514
2069 2.503922948738446 -1.211024518449429 7.1151717657189275
1011 -3.6794743718124914 -0.2284066519254821 1.2491563363267062
1877 -6.755923868205979 -2.5324662204133612 0.5162288412535457
1624 1.5193148886793781 -5.1759581599447895 6.590966886190044
1601 -4.935743124667317 0.3362614013593367 3.107507494279205
1027 -2.838753758675865 9.351845154603717 -0.7128433750136092
1060 -2.692562597748284 -5.359138429617389 -0.13152804856315112
1287 -1.0677156521124254 2.556041611967131 -0.4512576545917965
1889 3.6163869431223152 -0.18067922129412983 -3.7007702367535034
1239 -9.860565293597864 2.3434656552062476 -1.3299259957547565
1819 -1.9060976828594713 1.569577341079243 -8.10181207007213
1931 -6.080417791709709 0.40631971324130656 -0.6140095784985145
1185 1.7342020591545375 -7.136452938579019 -1.9708292883512473
2397 0.8999584570859465 1.1807289519612276 -6.7100532577236205
2888 4.060715468237169 -0.38092920762471977 2.448759646225373
2396 5.907234512238411 -2.1883925001171503 -9.707784505375969
1894 0.9249112525463785 -4.036045762940078 9.41808298032703
1521 3.5953946778369477 3.4611883022193677 1.7374969792826571
2084 -5.82867002453072 1.049176543068598 0.261149118025928
2007 2.575667902387882 -3.598343788053832 -2.909052432959466
1568 -1.9294017953677507 -1.081087005272765 2.7822694941564117
1723 1.9373783634839061 0.07583013653217208 -7.222400263336929
2611 -3.898309686388534 -1.1727866161569436 4.614472326869767
1596 -5.449173539601708 -1.3668505107387061 -1.1942543153462184
1979 -0.6365389205935323 -4.10057222503971 2.637028832387575
1577 3.029651593949658 1.8198993125855532 3.3643966567512735
961 0.326944494364529 -2.677136790327047 7.982154742368024
1348 -2.265761613113194 -6.153348388731983 0.061556058887634754
1540 0.9071246936301359 0.5677453932648573 -2.79997200102321
1373 -4.75441616671391 -4.8704340882788815 4.191358106116526
2061 0.16876467345357218 1.7382860838233052 -4.016861483512351
1911 -2.9005083592705856 -0.9188232220526712 5.953080990084631
2137 1.5647615154121333 1.3921372752445351 1.083999309590871
1815 2.368829802592618 -7.149392607632201 -0.08086227379168297
1319 1.6393385069057451 4.56679217208537 5.991573073639434
2823 -0.10202339188610571 -0.5217170927749502 -4.051455186523391
2368 4.476183120526011 -3.1630896116802965 0.688699529593255
1667 0.9962059307587902 5.88810453625071 2.884164735711809
2212 -3.5808656557708893 -3.471999627381879 -6.463498675331075
1293 5.176514823409234 -4.4725268205685325 -1.2551851680954162
1552 -1.881820343061936 -7.810176690247115 -8.34258064612089
539 -6.022068209338817 1.6552238455884185 -1.018454607336531
2281 0.694247769221207 -3.872148268300711 -0.13165717937049187
2995 -1.386101546358364 -2.7715596214400957 -3.8384370363219955
2350 -4.941293854676135 0.460780482165458 -6.835044223422857
2562 -5.244449667369291 -5.0938459126025 9.870422537546727
2141 0.4593795690425579 13.942348922512885 -0.337332328916006
1826 -6.001301285980195 -1.0339222361646914 -0.760505035882432
1590 -5.331657106582732 -4.351852794604591 -1.0432614097154453
1901 -3.408610256272088 3.3345888228961407 -1.0719251281014692
1840 -2.4819010915092865 -2.812133083203252 -4.746141131199781
2889 -2.4856466843276825 -3.2622808776201517 0.4466783585670998
2456 0.0623194351242545 -0.9249208396419539 2.4255303665364445
2105 2.664404652629119 2.0944944109436223 -2.7387101042181627
1838 -5.942292343874491 1.5261342495042138 -5.293016965531879
1645 4.043514201827697 -2.5899731910343164 -2.6148650749107523
1647 -7.657815381411634 4.177737237050686 -1.4598969180300583
1355 0.7008368151324023 -4.194892392336663 -1.828536939832984
1198 -2.190038408206517 -0.8233401393525275 1.2044477897560482
235 4.729214683292741 5.2510156946915725 -6.575575064617867
1841 -2.96737104083366 -9.223255107847164 2.7748217589849826
1650 0.22954024014723523 -5.581352072343733 -2.0700861383310247
2414 -4.406400151736191 5.850550536483606 -0.25336667676698676
1804 3.2907890412607728 -6.176430945501928 1.810704381821853
2329 -8.61192832914061 8.260405939320236 -0.13723626026660007
2433 8.395084824848139 0.8761974564664415 3.089467615113657
2701 -6.2764555482810085 -2.056444793986981 0.058779265065407246
2010 2.4610562755396943 -3.7282362885116433 -4.2075266249484375
2000 0.17036126846639177 2.1423420665339314 3.9903333175860736
1609 4.408750128342092 -6.0873868121781145 9.457685881405174
1559 -2.2161204723724204 3.7649313371528073 -1.4554665666199693
2014 -1.3950326270587137 -3.997587025365212 1.8559448527052798
2062 3.132048889655475 -2.8765057192727403 4.900946651908466
1335 -4.548836420538727 2.7841489374269472 -0.3637778892227217
2323 -1.968776239172924 -7.445684478562612 -8.008013774180643
1776 7.563226430670793 -6.569070991672797 3.5752389729927945
1608 0.5572320379579843 7.839114977551148 -1.988280556820622
1495 -0.8973051774205216 -0.2867131204823369 -1.9590376499398985
1040 1.3165830449707392 7.549289204638232 1.6737118375324072
1992 -0.31754566671229123 5.982754224874458 1.6381673737352835
2130 -0.09023164958835075 2.251432740959087 0.03249637378352349
1697 -1.4432448963048092 2.89212112288329 -1.8120652905521917
2429 -5.895918704733004 3.099249888064099 -7.640729952205333
1412 1.540929775734485 0.8137722815000267 -8.028005434485712
1210 5.89227542550347 -3.4914340106548267 -1.6923067501420732
2370 3.5188622464779447 -4.473842526785768 -2.873719004586926
2198 3.6711674653308197 4.735270922228996 4.1612769686976705
1184 -6.8228912033848985 4.774667281848928 -1.2536391040629435
1913 3.4636850451880066 -2.523994084235136 8.44971761999442
1595 3.5745915882722787 3.078254799145332 5.181711303983845
1827 5.41941055351105 4.41306583193035 -7.451145484296686
1630 -8.779702882130973 4.0367516499863685 -1.6549832379670746
1917 1.0881975276544886 -1.4988728174718717 2.5940947327956234
1672 3.4212360002774256 2.3463899975693647 -5.056039935856202
1272 2.5927502920777217 3.7493986629812763 2.1082278537722328
1292 0.2312678990841909 5.396508800992083 -6.797261629151271
1623 -4.9657798245323805 -5.75990555379546 -5.252043677297846
1421 4.05869538948917 1.7963778635527012 -9.000672894017802
1589 2.280489155803898 3.6940707647483944 5.28532745882526
1722 2.2754317459799283 0.608663156802005 -6.988756957472399
1885 -2.6528240027598864 -1.6180466612495008 6.794979369536942
2123 -4.710294276691443 -8.976843364258437 8.191387847533342
1569 11.644773692599742 0.004546432046762111 -5.221990659823291
648 4.734543945458299 0.421606667869592 -5.4003096137912046
691 1.0068241922801153 4.893601012597047 4.419227240670353
1342 0.9332454060167353 -1.0757353075704186 1.2353987160784825
2171 10.622984235458132 3.1817427968207954 -1.511762925127903
1294 -0.762905202241426 2.2427750564256597 2.949460107931301
2003 -8.107666351601347 -0.8202413975080515 8.407514259466117
1303 -1.7257256101124736 3.157943739858591 -0.15979783067965478
1853 -1.1710791314018982 5.638907711719879 -0.6680924030173725
535 7.805249758992338 -6.976739817447834 8.437634760034829
1951 2.2406313965090296 13.553178791610184 6.8633512471148945
1763 0.3881355059750924 -6.7553204646060365 -10.229020112441846
1989 -1.7786415565093041 8.478784704551444 -1.1709666375696788
2306 3.4731037815235983 1.7318507916117252 8.846983420983582
2227 -0.3967867269975547 0.9544525107300444 5.013903360261281
2662 -1.334103871920603 4.255262296795265 2.6949992680190626
2020 3.5538405244464464 -0.6536092832114507 5.635891783297006
1928 -6.291284894387754 -5.283060844201227 2.443857431185686
776 -1.8887290991560388 1.3244817642611957 0.011319695546179717
640 3.1846511277725034 -1.4778442241845702 -0.3178728343365393
1468 2.705399832539169 -6.261044201748927 3.933223557599867
2381 16.770322894641662 -7.204641921146865 1.3744838629887401
852 2.9898551289653454 4.9575482949802705 0.5233826790876416
1725 -4.174617265911197 -4.548973140582898 -1.1060043468394705
1140 -0.5655356127169102 -2.369743903726309 6.257678350939028
1216 -4.731666248387633 0.8654897531951035 -5.8007843950272076
2196 1.0010488129589024 0.279835573757057 -1.1451043006361532
1179 0.5459399480448139 -11.213279927089408 4.240623338455391
1887 -1.8748140248525589 -2.0715669141666884 -1.5920646747242542
1851 1.2996083694773937 -7.812190857521441 -4.310682665720762
2690 -7.283469055319557 -0.3142415520243099 0.06100349082854446
1705 -6.908974750683208 -4.83338751571071 2.1954787838306276
1963 2.0767465140505554 -3.791553894664671 4.537687989025371
1652 1.4973873516322889 3.2988453164691216 4.977391119788549
1325 -0.547748150403044 -2.397196816784779 -1.696333903308213
1926 1.5468052572920001 10.487051840223941 -6.213372024201682
1442 -0.06044251870857231 -8.484601007876565 -0.5886722219868247
1418 -0.6147205139523417 7.964649788714037 1.2720115048093368
2054 3.048140960712852 -2.4065661499654807 -0.9546443816989622
2626 0.819341377604937 -1.1113877053968833 -7.40990025087206
2237 -4.970386057803749 -4.23268468802626 1.129402591596662
1226 -6.083822400248084 -1.9490191188216897 4.2125162867005725
2149 -3.4322683926895245 4.468362613828843 -0.31916934316634904
1482 -6.414551214831615 -5.389850562758481 -2.7652167506108296
1893 7.125245627837877 1.3060799459605859 -8.412903472558021
1233 -4.409925911575539 0.0204183546556092 -4.097815252323933
1757 -7.279052539634449 5.68861900223738 0.8584577028538198
1671 3.4294968549879474 1.9975027152820886 1.8832131862864414
2121 6.321965736468588 6.293263755607978 -5.012669639771763
1834 -4.366180279521183 0.3575723209968212 7.621329532862657
2567 0.9997148379631561 7.179486347859019 -1.95311283248652
2419 2.7967885703397704 -13.674557186038054 4.15412081296046
1665 -2.592048024069889 -2.129086484228148 0.47455335358431167
1973 3.032398461928342 -2.9213836128343926 -3.533318917898855
2145 3.9685987103299656 -2.5666099231051756 -4.043699246440781
1240 -0.7507332808865883 -10.669591189596291 1.966393538548744
1187 -0.16023944591533743 -2.378749795933956 -0.2261028024279766
2923 -1.2830543756537505 -3.339275992732491 -2.076407611820216
1586 0.12512815217334092 -2.457736266368712 -1.896687214818314
2002 0.9330870955157978 1.222375009487247 3.8910177084178836
2001 -3.0754374555352184 -4.366715316375801 2.174764450027017
1215 -0.0547148778671442 0.1495277630698313 -0.7449902643373272
1352 -9.115534422384764 -0.12001470517261263 -2.7526137043408094
1777 3.739489736012593 -4.3199213418823605 7.686923698382649
1813 -1.6816774814046183 0.30652276348867014 5.734048952358066
3000 -1.407761526895777 -2.3087541901873383 1.835696338958918
1235 3.9619689248845438 7.725185456059048 -9.474954573493338
1396 -5.545820344368624 10.83064309525386 -6.960723860010551
2077 -0.5722566210603149 -5.9220561918885695 5.380256921588613
1675 5.624470631794078 -1.2361408739227706 -2.4737999950271132
2217 -6.329959302681524 -6.860812902893463 5.422462805518029
1286 4.680629844398444 0.3057985127030558 2.443210967241273
2617 3.5256815153247687 -1.4766588972241883 1.8521913600670579
1610 4.548900592651938 -0.6427192878515142 0.1632154259289346
2239 -5.717961262211987 -2.0292941488801444 5.4415339819431345
1941 -1.4632680227652 -4.774206841698086 1.7600751739490612
1606 -2.2992098778566574 -3.613307288899685 -8.759912432234849
2618 0.6420659676674823 -3.400508825792159 0.27811776921276865
1976 -0.42852751197117234 -2.01701804974886 5.792140607071841
1443 -2.4118451716704614 10.9806929772681 4.189079426562584
1448 9.611519354778299 -5.188772393568216 2.7659121625300727
1501 -1.6420731222925025 3.0412112668689164 -2.564741743203056
1720 5.327962002477411 2.4186651104714376 -0.6563735248975625
1120 -8.171162203014976 -8.909898402891939 -5.760122654709241
1382 -9.419065958365026 -0.19082949901442137 3.8349644469725086
2124 1.805866481788989 -3.9086739979758547 1.1672429038705796
2138 6.906965145201949 1.0869764681307863 0.23479597677393066
955 2.409305064982859 1.164956390556016 1.8858868440247742
1336 -0.6994611094391195 0.8684835322743564 1.6368840877339177
2628 -2.9543792970757434 -8.458001389879122 -4.16034426967071
2261 8.19829831483053 -7.1118566430543835 -5.940957207342949
2528 -4.193645149387169 3.0401664282074328 0.3928153742322673
2707 0.23143731649499633 -4.965565578923403 -3.8918647077094226
2705 -0.7851774372310992 -2.5917315602392943 0.7755718341266311
2426 1.574271319769962 -0.7635779531451532 -0.3905143919627837
1456 -1.5178120206233146 -3.183760340760239 0.6637047679053046
2075 3.745915767258672 5.186158348649585 3.074879956797447
1751 -3.860974471543494 0.034608478598960685 1.944045824666912
2170 1.1759574978129148 12.285246737714706 5.289242520742034
2427 2.893373246419382 2.740269511915524 5.749437212688519
1473 -6.7846084111522105 -1.4841088331287404 -4.5303398243441535
1855 1.3037868245370485 -6.843398630799797 0.22435500703300004
1747 -1.0708728055354984 -1.5199526708825317 -6.351598211274172
2486 -3.3972020583772764 -1.6225180764724778 6.435320866061839
2296 4.21585681859376 4.069456802571542 -4.7226444240625955
2472 0.5489425122987717 -1.5147656509101024 3.148291182669909
2376 -3.695134858416237 -5.588259972405672 -5.673863101923203
1451 -4.3825112289628025 -0.662332019963079 -4.562678876786386
1865 -3.3535418764252523 3.368409786910955 -2.774827298485635
1965 -6.506942128757706 0.5626310614854325 2.011529018748651
1953 11.795753622192846 -5.692342335708884 4.443193876440302
2308 0.625873989167267 1.226476668823357 2.6426342035407924
1516 -0.07214559241890182 4.695079887330343 -9.171118740753087
2363 -15.053490208954836 3.4879721195130755 5.60914176389392
1603 5.487317722673126 -0.6035053499157019 -1.0148422002529036
2473 -3.4727410885778514 -4.196038537425122 0.7048125651839384
2416 5.202087254998203 4.1535930724226535 1.3345750612301048
1071 -4.845571180999399 -3.8306457850691578 -1.03973326026173
2223 -2.3894829000421183 1.4822977944528015 -3.405728246271151
1394 6.802408746318778 3.4214819991400063 3.4031351282637834
1514 -6.745491000247094 1.571836921444362 7.549645244332303
2029 -7.949251309423709 8.168403505986152 0.9115440127867955
1908 0.4484152957933314 3.2274117564731957 -4.9781118363170584
1692 -2.7807769211741924 6.39306871521931 -2.0497903422734725
1709 -1.9473564889772972 4.084577481541035 -0.21788537989099313
1783 6.96758910730406 8.364947705581477 5.493692631270747
1206 -1.014974454809232 -4.027177151794922 -7.091179409014722
1754 -1.3312440773189418 3.286513742709206 -0.14161379564743884
912 0.0899810334216077 3.7180149915164344 2.4304354231553478
1583 2.771976684395595 2.9129974922795343 -4.656943054627305
1518 -6.8170901058228 6.271000859760898 2.0575066591744795
1993 -5.78223303894671 2.1663130941643156 -2.656023053321941
1535 -5.244137259359206 -5.334202823521405 -2.4368858074608575
2188 -0.8654121035127157 -0.1553009481660697 -1.839501319930873
1463 3.794782994509556 -0.5413719706605336 -4.099194951257219
1716 1.0021893360239784 7.010295621088253 -2.283059822970306
1306 4.376098543469149 -0.6630744819763761 -2.7729403655396667
1504 -1.2998932914769297 0.7777505537740153 3.2249150985406048
2526 -5.688738901552899 -7.713991637030786 4.543250836563119
2012 -0.9562307923486668 -0.7790416666211941 0.518011755868429
1172 -0.941851631476856 -3.5262176093380315 0.4591439190762776
1244 6.49344237497274 -1.1543511964565387 4.359745470176376
1502 0.5379132527748689 3.3792064876424863 4.887191296196782
1870 4.113083142072744 -7.148854660065257 3.3195441434966337
2036 1.3291130241582745 -5.246397973419844 1.118784555991491
1059 4.349821892367798 -15.099595797004039 -5.311088756119444
1314 -4.428640037896557 0.586145367921336 4.014178061372098
1599 -3.759765818517023 -3.6564408374019366 -1.3364118876030004
1162 1.02674270477364 -1.4652944136096668 -0.013146133006273333
2043 0.4449436260827724 0.08029260783228132 -8.24925880770199
2283 0.33332233583292403 -8.926595506108125 -1.4552048657203411
1506 -4.077079403559699 -1.5170008297608104 5.741837493358672
1924 -3.317621875689278 -2.3904901065747706 0.31978147013888036
1555 -2.2806683586524272 -1.2985713488661355 -0.16484552056189777
984 10.509691580068317 5.284747286000337 2.538429010444429
1242 2.0403035467339468 -2.4330324599320567 -1.010564204559793
2266 7.417134262671678 6.3915369848772725 -2.7508521564400263
1204 1.1461356909962874 2.597212823563408 1.0071265891219996
1641 6.305085997037788 4.321192577891424 -3.116895449459465
2914 1.1687750705091868 -3.003211166294364 -5.614335244948106
1594 0.9255297055742703 1.8515939784077446 7.593404284871642
1948 -5.226811511771749 -0.5753308296323857 0.0851569502962786
1922 -6.689694249727298 4.038774558668875 1.1360375248539822
3069 -3.0149479585968133 -11.81561982041336 1.7603542932349314
2892 -2.405652750898591 2.901934457686442 5.7412444741131825
2213 2.0958595136844917 0.35421210992116986 5.2369963604927685
2249 -1.0492011052236143 -1.7583067334205336 -0.7401752081994494
1576 3.446965696504082 1.7939855697715021 0.998413964859511
1755 -9.809032437750506 2.425059432605231 -1.9458448048764998
1390 -1.0392283139920264 -0.43937139403073844 -7.1156712497625705
1143 -4.177379268748499 -5.703909977419684 0.4148341939693424
2209 -4.665442705183535 6.29493790712079 -0.4963666011628603
1985 5.762154170300677 3.5002259293956133 -8.196730935329178
1315 4.963557571363071 -1.1440233243150668 -6.024534206973413
2055 0.3879855100244755 -1.528565011632251 -3.7721945596805164
1715 -2.174717662748459 3.036636252484889 -3.8676789622847485
1739 -2.425803922659432 1.7541889079063366 1.4356002088100195
2146 -2.5087429828510968 -5.428882823428852 -3.5110045542286885
1635 4.373510976410589 2.040128315730705 1.7668122294129862
2048 -0.2450768436459359 3.5957483799128642 0.4085950830591808
1420 -3.1119687238518163 0.28435617386046164 -0.17205445323325474
2276 2.732221841354993 2.4612417213575353 5.652642235989725
1326 -2.817095157212892 -1.194564491899668 -1.1707874310082487
2183 -0.9739699674609394 -4.200705876357555 5.4922124073762095
2703 -2.4916938316507093 -5.139883108952283 5.192474893846876
2439 -6.294208810413625 -1.0760140878018751 -3.1431242705175584
3054 -10.841872122665718 -2.8222898173566504 6.4941242557194085
1971 0.35087862047044227 4.242189566627784 2.167183457951176
1296 5.411287283681995 1.1140941146662802 -0.02792587639676851
2543 -5.4181414338640455 4.50896222954592 5.95921302133556
1166 -1.6513001694448608 -1.5800834357696747 -3.5795273796109774
339 1.4861516594043553 2.8443468664164846 -1.3069369914227453
2960 -4.6156405462832755 9.930527424038797 0.45021257520350955
1492 1.39681697387169 -2.1995833916970233 -2.0023950644772777
1942 0.019251391698187445 -2.807800579617504 0.3271249469170087
1544 1.3267063134452675 -1.4904683413623985 -6.308562975171084
781 4.8909757402093454 8.293449641995421 -0.93435378726993
1571 3.704477443087863 -3.484276516112647 1.3144469350647143
2169 3.8894646602476626 3.4358802601699443 -4.140839627673782
1863 -6.508862800412909 7.525223281754205 -7.714316443298119
1469 7.472375230437121 -2.5463693702636676 -2.3788176133323966
1196 -2.0792789464223618 -8.85780839185887 -3.453647018109134
2802 -3.6067632245466448 -1.0023340802971656 7.930256044678374
416 -2.607901439543807 3.223898766628008 -0.7671244999976033
797 2.9913543824208237 7.404572698406217 -2.6442341955816624
1116 -0.3053040529667556 -3.588818312443848 2.800204043457212
1810 1.6862480988131927 -1.9616292414424439 -1.355564799840945
551 2.898430181710453 0.33487280569332445 4.76489847916468
1858 4.954117514710392 -3.9220111199389134 -3.1087832717928636
1565 -1.1935110698249924 -4.2179609999188 0.0703347898024132
1069 -2.6674379873038125 2.2714043732317846 6.449349980225956
2115 -1.8638976354602477 3.8504952410154387 3.9057696070428682
1533 -4.580593937726379 1.3261988380846859 -4.669397463342593
2082 3.1831309649911708 6.061428974190713 -1.488100520619329
1864 -10.999671091440021 -4.94780871677522 0.6481940480961265
1796 0.555794809955568 -1.7032889165169567 3.779163911021431
1526 -2.295921526602114 1.6390537625284118 -1.520415432753093
1147 1.5002722556356491 -0.15192370982741066 -1.5909016581374131
2282 8.825140756989956 1.8855940689137478 3.6276460275924802
1343 -2.4538119676959522 5.521425134673024 3.5377929906680645
2450 2.5300050346174423 -4.804618511430458 11.68864546975564
954 1.1044824355044498 9.331091803545503 4.824352855464826
1434 -1.3780316685772762 -8.169772302125118 4.467317040226233
723 -3.445352582975968 9.814749550167376 -1.5273037766457915
2274 0.167427046725572 -4.840074226981694 6.968899573612112
1862 -2.700327139486048 -7.191845171022616 -5.907040744296084
1998 4.361042991071132 4.23469261598569 -8.172265014689671
1560 1.3162034296499425 1.5523814958324897 3.680712430635515
1277 3.639956082491976 4.618390976625813 -4.748602212049053
1212 -0.8037795730988391 6.563179317613252 -3.883040300954124
1283 -3.8038108031427607 5.02794044739983 -6.681219772357618
1982 1.6452384712542918 -0.4541900720993716 -0.10226723361559996
2022 -2.022054160617284 3.065436415098656 -0.6447330850216748
1263 -3.35651522500778 -1.0573593567664792 -0.38586810744360134
1669 -5.746973415206867 -4.434691923332241 8.879293995583861
2377 3.0752149556420703 1.0830722452526742 2.9666621690657444
2609 -0.6226129099739908 0.21049266656758864 4.985140865676644
2311 -0.14838847990173065 -2.434963562250552 5.481121047780586
1803 0.866305907758998 -2.9536090150907084 -2.3946661138977734
2051 1.4061596527783515 -1.5441038228216637 -6.4097434213688995
2584 4.300649943638174 -3.5009975142006358 -6.63087342265302
2286 8.718430566276801 -6.452656345931013 -1.1682301630866854
2854 -2.042939458606235 -5.2637684933836715 0.05945681662452877
2558 -3.4572479932423956 -1.9784380607283727 -2.4090469532136014
2661 -4.123393813329864 3.393161854804548 1.3646778648374094
2786 -7.033225578557076 -4.244097599510084 4.817080690899414
2411 -3.260179975739875 -7.859823757925466 2.087847046891028
2364 0.19158310856355337 -5.214520672129013 3.278683243030175
2529 1.4848491641735166 1.2840369596027477 -0.9013150524313398
2573 -4.284058316091707 0.2759690486456652 0.9664316094115577
2859 4.315484689476297 -2.0322338572484444 -0.09803849090391825
2425 7.9889068661535925 -3.124261413070444 -1.28726352416632
2505 -3.1196027011121226 -0.2889049397516562 3.75177079054652
1411 0.7702863678829618 0.7195980778404267 11.134677020107981
2231 -3.2802906775025766 -4.554590645014274 -1.7988973297704816
2318 1.351752725226611 -3.322633835224715 3.2092603454367064
1771 1.097769996492521 5.588082846497851 -9.599105215581726
2073 0.2490577549402591 -1.1172140014867804 -0.9472279477157668
1107 6.245171904056885 -0.465527398811629 -3.316499950349983
1491 4.184684132604788 3.5082768115219007 -4.289251285803002
1735 -0.2026171395985313 2.5735521235103413 11.253653972110419
2388 -2.4598118681593526 1.505720647785174 -1.6819459534613959
2520 3.9703847344846492 -3.727328231726974 1.279733754709072
1710 1.0645373954998358 -6.638217716736669 -0.0821349248412627
1289 -0.2355947548289556 -3.5766837114297476 -0.015719507889761612
2096 1.8810966323026477 -3.9950535916052163 7.6289588153700825
1312 0.413420249900902 -5.692730353929051 2.009515026779688
1097 -1.670952386124734 -1.6547976153406523 -3.6540393722427438
2330 3.8806799490787047 10.568020222949983 -0.16164152983206495
2358 -0.5766550713357416 6.379724597242958 4.054656050707767
1937 -4.3088579469224735 7.630893273346301 0.790364589680086
1632 3.1209659295784933 -6.80548913929142 2.9793722810864076
1919 -2.363876816621663 0.03161998320568717 -3.3610022823657304
2574 -0.3820772005797133 0.2531560157832323 2.3868698711258376
2357 6.308972087921876 1.2490858855175984 4.553382082638139
1800 -3.2620591215021255 -3.6032022140818265 6.047123500029369
1718 2.950468875366473 4.185495008275722 -2.953333338424317
1360 10.005941736218912 -9.476416500072496 -0.14261667434875183
1857 10.81709957579036 7.651534156157854 -2.4153957226125105
1786 -3.5199557737647234 0.920142408938435 1.7060028773232232
2026 -4.543069328236482 -2.5859181611269193 -2.8110627422557033
2516 0.0919427674997092 1.6622763860282672 0.9653125805348174
1170 3.059820856284846 -1.8445735610674323 -0.4828047936271277
1896 -1.2823869609828338 -1.309738663619444 1.7149434688370502
1688 2.47930148293629 -5.656809577745745 -2.168345181297857
1875 3.5268461095400516 -0.5594175969104869 -5.011352370858418
2219 5.560526927485985 -0.6496352292651495 2.3957480156955375
2375 -5.717783006331345 7.873948984814913 -0.8151365737447183
3051 4.047236404588958 5.040982358293806 1.1794424634343434
2777 7.48218913845493 -7.472911640560198 -6.056777365851087
2872 -6.751015210126932 2.906347557389439 2.8166367806757973
3105 4.268470659406848 0.9262178462895506 5.349882013489397
1802 0.5876634015640474 1.5466404778723684 -2.7006851523694047
1509 5.1569321725714685 -4.740119616048236 -3.8569039202231274
2623 -3.755596286458103 -0.7089170897118706 -2.0520870727076765
1350 -0.21849306357807372 -11.124777768423632 -7.170979575702671
1978 -4.429295152409556 -9.385498184219404 6.2665720987897
2853 4.806892322835079 -9.049247066300046 -2.030134024511486
2335 0.4587624897042251 -4.1979938665253576 2.9827662299770177
3006 1.8440888773655242 0.444633332724681 4.1848039534487445
1634 2.5535758794233234 -0.28401321272732466 2.6206177254464538
2139 -1.262181583652372 0.9568187732264631 4.850947017608088
2875 0.8587892061268757 3.2842899229222455 5.612936120831918
2530 0.35450055478416265 2.565001130110067 -0.38590676393628615
2757 -0.6726986125500936 -0.5691045701022341 -7.785497742442124
1631 2.5150147846286086 -0.7144337658534958 -10.510782614929704
2586 -4.705658728103292 1.4638452651197755 -10.071888383517726
1406 4.642972559230276 -8.522851186049513 1.9603084760695757
771 4.415021882327882 3.8590941909645107 0.10973034607166338
1031 8.040878026074584 -1.8579152700190915 3.5781969649832126
2625 -1.7571656349108453 -0.9487019361399818 1.7148963563261221
2692 -2.681941181489784 -7.189052370229684 -8.579483845746362
1055 -3.9855014875299646 5.622968990694626 3.2860076469727164
1519 -3.9501400892779404 -0.4280575960889742 -0.3251169869852359
2112 -2.545577266809309 -1.4931390968472396 0.45560791284627106
2720 -6.856196126812383 2.1398521428235653 -0.1607104934851042
2666 0.371384740185036 -4.822846270268429 -1.3780897820721796
1749 2.1622980413470363 -2.9631892129014457 1.5584642821613532
1320 2.493802634552746 -2.643529399883703 -8.868432542636572
2838 3.0765485705675433 -2.527012998011107 -9.984628334332262
2401 -2.369732862527133 2.610440561415781 4.918548627146368
1859 6.414215986448357 -0.38196288946320595 5.9878294319572865
2176 6.598229225198673 -9.013492726610572 1.254141974019348
2297 -4.454277438942414 0.7121865140968361 0.5760206167675122
2926 -6.092460007088515 -5.720354638635396 2.918874852948416
1522 -1.3151729078664565 4.971412140485284 3.5877091705786697
1899 -3.6210811301024735 -6.694454475188718 -0.49770989904598334
2342 0.5262340635255169 -0.37442066822185927 1.330628874411676
2328 3.5732605138758173 4.380866394125037 2.871730931314067
3181 4.584684799756888 -5.54948928444527 3.0458462039792633
1891 -2.5295055771253687 -7.3128702560530785 0.33658335280185236
2065 -2.715016505070179 -0.8443719395755834 2.6296765086027185
2379 2.409846239067548 0.6229347558497265 -3.199944165141295
1653 -2.0839854267832245 -2.290118755357853 -2.4450533425290844
1426 2.2563081053683183 -3.920446129562084 0.9499341399319826
2208 9.894172138338114 8.091946291377237 3.024566245270924
847 4.7603840266925195 -3.6316312915301787 -0.5271442202128088
1909 4.276897026414241 3.5393735295872624 -1.3621072822318503
2220 -5.213915289894157 2.5583137891133703 0.02481524713350889
1830 2.9130495121507085 -5.0608687916000985 -5.886692541590221
2441 8.375047308371796 -2.503207395069028 10.674083081169876
1515 1.1912031207172684 -2.4402512894237955 -0.18996316811399933
2037 5.118168847073681 -1.4938661525799786 -1.3528462584767142
2325 -0.1437320884622003 4.428263599662812 -0.33121001077487344
2166 0.8612004625623961 3.970866613029018 0.40311704314827235
1852 0.9575081816250621 -1.5058280725222655 0.5126578856704813
2228 4.944906410784958 -4.105662831949092 0.669425060041279
2665 -6.449229204861827 -2.003644618988831 -1.0346156689885202
1867 -1.7035429296361624 4.55292157627457 0.8610131598905666
2168 0.7876507799722205 2.9695726519417462 1.602492229022127
1625 1.8215403442843623 -1.2380502460240832 0.5213243874249514
2382 2.189321253949868 -0.45994601640970745 -2.770413479049604
2207 2.289998113185634 -0.20073960736613708 -3.432730102818262
1660 2.27410049713894 -3.9463245778429354 6.833889828881401
2225 -5.644358349044738 -10.565472429582833 1.7884698277013515
1676 0.5408494034554758 -4.015238506470103 -8.282682700049188
1359 -1.7211614191945952 -0.6535439973172426 -4.192591545149539
1545 -2.7696645820770884 -5.448704165031773 6.527045732176449
1934 -3.8066815769080815 -0.2583303604084783 1.9720989339467496
891 8.155103492578839 7.833753054160625 2.627668087956867
1659 -6.568962390355358 0.013988374935077461 6.675777770427976
799 7.329950618495248 -1.1519430519449363 2.9397551201774283
1284 -4.202347009689598 2.087383802422603 0.5918671620286011
2582 -4.330165043553336 7.243877680749066 -5.376938085568566
2635 -3.4086279393237966 -0.25515489105217887 3.9231897655418186
1078 6.734106909477531 3.1897385520949495 4.623138391762511
1795 -2.56098496052958 0.17126542483369392 9.092769887437663
2187 1.8821794861029246 2.8693141523714725 -5.108319474020146
1413 2.706554446311705 8.451711247691593 2.653659591640669
2113 -1.2299738049743207 6.733313005181152 6.209714049668301
2443 2.4784659105842772 5.457558921062864 -0.17422914692803987
2092 -0.28815424525484606 -2.2123433515584376 0.4150298929073423
1129 -2.2771942148459234 -5.950339288208204 -5.185192628439528
2268 -6.324581997003476 0.8518134473056458 -2.413671888867877
1439 -0.11224150639341363 -0.26161012392273186 -12.960594588092446
1642 -1.228730166314585 -3.01885742427765 -1.1383511889332552
376 7.222250266282426 -1.7684861579456654 6.649314545576966
2182 4.978881076843976 4.097970381594207 1.6615088600117234
2405 4.389931052517162 -4.254711710514017 8.144158525519929
3005 -3.841619724350932 -1.2845570942520153 -8.086084710367599
1039 0.17653452235509468 -2.639590597522815 -6.063012185464301
2109 -2.7170441255194606 -8.064041871642441 2.5093277117311414
2423 3.795857063918996 3.3126697958864164 -1.5596871667093841
2204 -5.2983416165693065 0.7641237466329008 -0.9020142177524894
1793 3.065766533965873 0.14248932747326448 -5.592508675102554
1836 -0.09016800698550943 -5.619755976251397 -1.4295853400200669
1925 -0.3702577634240298 -1.5433314464154837 -3.7305789864226133
2970 10.625743793667596 -1.4090373596418924 2.2504044711810596
2280 -3.7385062091013825 6.128382008479251 -8.598420392870533
1656 -2.0507674190031606 5.866170876009025 -1.5817652239609796
1789 -1.1121206446876861 3.7624792586661586 1.8637915079998346
1556 -0.31688392631168827 -1.7571711823184586 -3.106682606002646
1947 12.183912655091547 -3.358538002935079 -5.259955368974954
2468 0.20563192585244772 -3.478384009201953 -1.0098036097173066
2349 -1.8063985516592826 0.033451749349390235 -2.073152920718708
1597 -7.254430750364791 -3.8142937036950584 2.533048394030284
2091 -0.91132678110093 -4.7622895145761905 3.60031796675786
1453 4.158377682211528 -6.027024614909632 8.243195797544034
2691 6.578294672675507 -0.5255435155689503 -3.804984171883179
2118 -2.1645495659818543 0.5033258623569438 5.782532200302949
2385 6.915803038088353 1.3362272405799926 -1.1422022065479094
1871 -2.28468824751699 3.0096835290902795 1.1870951606875675
1354 -3.690951459876179 -5.582880092936937 -5.502369165930771
1614 -0.9738866898490155 1.040450900864508 -1.7940116507410937
2193 -1.4856468600009263 -3.6999487922254617 -0.09712622928280576
2099 -5.912656066808165 2.810340648602286 -2.4404587235987196
1746 0.3662748992759054 3.3750919422856347 4.400820814251774
2181 7.832295999104251 2.8137905602739104 10.551521822804633
1619 2.976923293464953 -5.876577630382165 -0.04530049152881094
1094 -1.466589558871627 2.58755712039883 -1.4744262870067555
1680 -2.88409913719438 -2.694856800911594 1.970886991268656
1960 -5.192309405606577 -1.2497272714100398 0.6838210757827548
1939 -5.993854094624361 5.71917077817955 -6.913877162400559
822 6.686656082939327 0.3183059692782606 7.535422554416891
1550 0.1375170453837134 4.746285605364869 2.541997097853719
1638 -2.184429249149379 -5.684019900510599 -1.3373241962803957
1428 -5.131031943834593 -3.659477038807616 3.588267986593886
1945 3.61274571443643 7.524077254603245 0.8708235607223049
2464 -4.773686306705831 4.692416909909316 4.295921848993949
1693 3.0364896316445495 5.388621254735894 -1.7929988786389686
983 3.905229363038157 0.9401388918880463 8.187535121580686
2602 7.012415793608219 1.3887102928510389 -4.687657812958003
1493 -5.284280629568084 3.384409015379379 -2.0270862189294925
1980 -4.435765583622176 -1.3599014924088668 1.7636535588542868
1357 2.3368334987577457 1.7277186605776702 0.02874520698613303
1883 1.3297249125243775 -0.5452830315199095 1.6264846499358658
2206 9.725197605624325 1.004299628359666 2.1199496891209675
1734 -1.3359748762529127 2.9255276913577055 0.44217995113375874
851 3.4943601455586384 -3.428038112543713 -4.043317980449736
2203 4.988377025142152 -4.510837021654898 -1.0191590041188818
1422 -0.10622047055272187 -3.3529017960189025 3.2991724617551106
1717 -0.25248323028988195 -0.7420125137503196 0.2724079775230947
1736 -4.130373387676289 6.892448163004287 4.398341585198491
2861 -6.937707029953563 7.288661938134603 -2.443835697082578
2942 3.388695819474768 -1.019125798806663 -1.297878179270433
2327 1.6073157128413715 1.4214557365791693 -8.667472128628075
2430 8.541024091485568 4.100496955673663 -3.094769003425181
1317 -5.004629543324744 3.411820170396816 -1.110337749510752
2200 7.384776220170177 -1.9770312736624702 -3.9474993781152765
796 1.3750224501544563 2.268775679246391 6.574681915715435
2494 3.2859491951240023 -4.015238472225221 -0.46279487974310163
1616 2.4084936057242756 -5.246474204297995 -2.192852411624027
2469 0.481250381471718 1.9247704716634828 -3.166600424663555
2004 3.0166832521129794 4.594718311475215 1.195247482779815
2049 -1.5241101730876543 5.919283338742974 7.783518937068264
2017 -3.597637595330599 0.992455001455185 -5.995755149583144
2953 7.138241857060572 3.195306463118144 -5.001211660871471
2474 0.7784348974017141 -5.402703523024337 -1.609313298362696
2501 -0.31238792384915687 6.624998273327924 -7.70477117069656
2078 -1.7248438262621655 -2.225606868416361 5.9905801711753295
2406 3.021266955895576 -1.1158302412315464 0.5235864607274803
2610 2.6957432563631953 5.233068241023748 5.373868833803178
2905 -3.6577770156468765 7.84474961096941 4.3023895560255125
1585 0.17709567833210893 -10.033093219747597 9.77110669054228
2948 -1.02529697769438 0.40068427819991104 1.8109054252339114
2752 -3.6571060801026007 -3.6093725785191193 2.5875160664263994
3037 -3.868843961908707 -0.2778790660527844 -1.5314692110758374
1900 -3.5411113997861663 0.24420762690330705 1.3583568945748712
3059 1.2045023838272186 -2.266444696780333 -2.161663461422414
2532 -1.2147679100405826 3.1017246095107915 -0.6270837783717447
2201 -0.21585801455407558 -1.9849402664330684 -4.2065234238273375
2378 1.2500446131834193 6.864263313869031 0.6608424475259327
1262 -7.733334277697466 -3.235403161425856 6.270221304973532
1898 -2.0302272867008897 4.926703164211471 -0.8661739476275475
1990 0.4076359978031825 -4.755399436253924 -11.689456959233143
2449 -7.942071469064718 -10.23361905803828 -5.423572745261389
943 5.94347104952041 -2.7652398596391974 1.3432720135800231
2645 -2.004981700131707 -5.115153355299926 -0.9255042768690651
1035 -2.763757747931517 -0.16241319528570652 -5.3382295626393415
2598 -4.075797512691091 2.898421908491371 4.773028514269281
1876 -2.188272629171636 2.523284249288184 -0.09361695644295033
2772 1.1120206903419718 -6.605868590531273 -6.610519335170364
1480 -0.2522275720076253 -3.6499711082854716 -0.3281903161197472
1964 -2.5345704227514876 4.407977152299712 4.429909380221671
2747 0.06854798549503939 -6.732616780094924 -1.1737042114165304
2885 7.046253418096739 -3.0371867439209397 3.8665308782826515
716 1.1877545702022134 1.829856239379978 2.6797797379457453
729 1.0174479322952912 3.3704933667641837 -7.77131778389322
1207 -5.723900405410564 1.342802149918728 1.2951390551468647
1930 2.926346391028054 -3.7681201080703053 -1.0417039224720657
1968 4.533028607505622 6.1341234321521805 -5.108688097804585
1644 2.112605086169106 6.401181289426876 0.0459537929903609
1392 -4.352863855612388 1.239637197620374 -4.185569386182359
1958 -1.2461495302885055 -6.176966762683284 1.8422389100918701
2922 -0.08510257630499356 1.2758145251430975 4.734845631589689
1811 -8.70688556136389 5.889570110750791 -2.2930012463028846
2269 3.79154751055285 -0.4211898235677699 5.206212261291651
1807 -4.547320974224032 -1.220450758903467 -1.185530642121575
3067 5.557910290069233 -2.3293107524287753 -4.12492643791597
1419 2.0558912143037658 4.1213857765158295 -3.8406956297500567
829 6.795243305314792 -6.206509557084793 0.4213951621237127
1435 -3.962474188469488 11.274036884578432 -6.485329614486706
2127 -0.17323526090095492 10.716136924703687 -6.245021277121663
1679 2.9294022934479154 0.3236562671250819 -4.215101332710453
1881 5.125026988659927 2.5862698317436688 2.0212081327389995
2360 -1.7878388614430911 1.8529793456223351 -0.6087610951537877
1995 7.237892565132847 3.7541534948291027 -4.281395469697144
2481 -2.241993569551829 7.59271504597927 3.743007242223638
2915 -7.111344581477452 -5.553795753417883 -2.866644548942582
1966 -3.617902234417202 -4.77503030020077 -7.092222834041589
2316 -1.9792763441650878 -2.211381732545745 3.5030734369410004
1087 0.6961200982977671 -3.4937037562614526 1.6115109235799006
2480 1.8545701455915575 -6.44593381661042 -2.7111506875995066
2042 -1.0050577735805122 4.850933057001578 -0.3276890816604722
2126 5.39449043177024 -2.320346103907605 -1.772649799491352
2267 -0.6358861692412325 3.4893921542176405 -5.21772403065837
2167 -0.16915298413377536 -7.643795069536659 -1.6467079809288798
2458 9.92021316333951 -3.0009647626553413 -5.17104393730351
2985 2.4109105938438953 -6.523131515336362 -2.8790388152395168
2534 -4.558171712993246 2.603743326378529 4.561363857653508
1818 1.6484607947939618 -9.44721043594367 2.448652902338762
2175 -1.272046008673257 -4.0904095336169375 -1.3232893820056808
1833 0.6172793655031819 1.1741790440906064 9.01472641428982
1936 3.3143341281364553 -0.7953637731634049 0.803853772296123
2359 -1.237559555418125 4.291217489966798 3.434242545101391
2254 0.8932675330429528 -3.429694530795376 5.239739874377978
2178 0.7317942164366101 -0.6933712381090436 5.601153531162832
2521 -4.310876017019393 3.4273477210966248 1.4007781673151447
1724 5.29562140687976 -9.025077759851165 -2.188317606387432
3250 5.018514768870343 8.8353702756446 -0.9104242913394673
2814 -2.7574668899173855 4.606900989409309 2.475273314393661
2484 -3.1200399677508996 -3.9504471908550998 1.2912186498504636
2723 4.1440797183899525 -3.6658052178661213 7.780678882017975
1082 -0.06338043472877984 -5.1218573788747985 -3.730918017369362
994 -8.907818872703114 6.863312341881701 -0.924337374547034
2035 -0.6582711697020066 3.5105912482056665 2.77660560078694
2551 -0.8995555912273178 -0.05355257603473851 1.7757996919617065
2194 -7.432627010656794 6.893941610930385 -8.166042181757224
3269 1.1019221501355045 -3.073956136542336 5.346505656982966
2689 -2.457439948547113 -2.6806219633183304 -5.398889447219289
2279 -4.343603358241656 -0.41568972119181685 1.4757854704309967
1797 -7.876753370643204 -3.5001613055030267 -3.7235726946462377
2047 -4.759089112752734 -0.5505833929144923 -2.850477056646214
1496 -1.0217869761832061 -13.596482323359814 -5.429796004209999
2417 -2.750276952337388 -5.680445267889704 0.2919692250845329
2063 -3.28447758036308 -3.3798968653975834 -8.445393274133536
2190 0.6686062240466558 -4.662666825033113 -3.50142696803384
1987 -6.840794332399949 2.1021861310424974 -6.735761750926973
2987 -2.5250512543822827 -9.651083661698488 -1.4906979282687676
2005 -1.8355321885622946 2.947454413092335 1.4882966944842415
1748 -2.4880941377759744 -5.957819150681947 11.145701068549853
1633 0.2309334730303877 4.059134560066885 3.9072249165876984
2998 -0.1898493768513457 -2.3793117430570234 0.9822292438562106
2619 8.526968891433157 -2.484970778708883 0.40021333854242364
1646 4.818627750571256 -12.245087636783149 -4.556423576477947
2185 2.008722118452037 -8.486354024496146 4.627236911038921
1285 -4.207255575383263 1.0828228300143152 5.6165066611590975
1461 -0.07499064431287389 3.070096364915626 -10.16454337050872
2303 3.7715452268395366 -5.798614054428545 4.387275044512481
1017 -8.021525158317095 11.534565946375965 1.0654041343239653
1780 1.8896874001346937 -0.24962467067212657 -3.3676541734408922
3185 -1.5412667798096633 -1.0369904961792362 0.10541432556023586
1750 1.624371127194417 -3.8901045134376315 10.44070093989704
2136 2.237382051827534 0.3736833335095283 4.918740473578412
1873 -1.6909200271488387 0.4168958481352599 -1.280544226397445
1874 4.856624732082443 0.41418256220437755 -7.435919385332216
2553 3.5823991799426658 2.3141061697928724 -11.166249049924511
2229 -3.0760722300468686 -3.457908491506002 -6.156651016886502
2245 -6.943716703109668 0.2958850621778547 2.7143166727659924
2816 -5.6165073357936475 4.192491965780482 5.479599943225243
2408 3.409713442799835 -0.9425536671993033 -0.5983323959258864
863 0.356352906078069 -0.22920591609876312 5.429601128744357
1280 -3.610379938165965 -1.2559500429393997 0.46594172628547875
1591 5.812555517697288 0.027208541416649606 -1.9926931282647093
1028 -1.8289331220668825 -1.7219754106794192 0.24416386923679986
2544 -2.0012777627906067 -2.3394224952915104 0.5932422640790631
2106 -2.506561575983385 -1.7059538448830716 -5.173687017887011
1678 6.6841361469707 3.0331125472389466 8.30164299408248
1278 -0.038226379465643875 -3.1629278643808867 -1.7184309242963212
1845 -4.162720782957421 0.06330687518649207 -7.04261585120818
2517 0.3459672202282592 -1.7884007605339673 -2.2518296719239372
2545 -3.3532728219667822 -8.99759218392133 0.6134928189971031
2485 -3.1632155764913077 -6.730745769833371 -0.27080426680681485
1952 -3.951806929082538 4.022105579341866 -6.206547417799798
2302 -4.938345644264897 -1.9499128154604919 -0.9960418757184099
2498 3.2717526104645036 -3.6188827396665024 -4.53049321719498
2581 6.782471642328818 2.9966649587786947 3.5651851547564997
2572 -0.6928769274161524 -0.875140776883639 -1.381623856591187
2046 0.48498285511033973 0.08078022666611663 4.292054995123468
1848 0.6188417322934304 -5.710343534613867 0.8724380281245404
1805 3.6924930125144466 -2.088796003320553 -7.130765101254551
1728 6.311581201397187 -3.4464194545071827 8.94591320034901
2356 8.910306184611427 2.522703005718581 -1.2774677429212489
3317 2.3043992383420275 0.3754779679096348 5.326489299351609
901 7.752219063440093 5.489176420164873 0.2899487861937643
2650 1.3886219648777172 -0.14174528205566697 -3.688691735222123
1792 3.004768845814539 3.518194417043313 -3.927867512611676
2259 3.48429358023421 -0.0748657270279243 2.447086475537442
2059 6.111262866186022 -2.933904400104644 1.3002355534379513
1882 7.372471572413627 -4.054732027502027 6.020248215145039
1668 -3.616587313879256 4.1814825842835734 1.7679902526076787
1732 0.9602865181692917 -6.51529699018835 2.2362353313375136
2525 3.4885251593559627 -4.937314861145171 -1.485720443782089
3326 -2.0709774978667532 1.3389017868627746 -7.907889066068615
2341 -6.329604856412817 -3.8068422417202523 6.919045868324755
2629 3.64800010678852 1.8728549109643131 -6.49701492046825
2304 -0.5493850308938478 1.5623333494648484 3.96376572953184
3162 1.2015620251488188 -2.6846157734927263 -0.3126219770024365
2467 -10.605308652163218 -0.051010564674730696 -5.227947391428377
2569 -2.3377216580897717 0.2669515408276749 0.5514009716165158
1991 -7.968882581413907 -4.537354435692999 -0.6200107049831356
2824 -1.4765301813682912 -9.239477356052632 -0.5443302411800466
1386 -2.911085490797006 3.007247290073556 5.1033325085604035
2787 -12.059942175597161 1.3026652480516185 0.7487552345783223
2336 0.12727362985162466 -2.183989249883046 -5.72412247292306
1706 -0.1445023800294535 2.4208000989500653 3.2930546687100146
2592 -0.21435030035479744 -5.884007451448595 4.2862015479797355
1897 -0.09157646983884063 -0.5132943054032568 -3.405271081660044
2640 -5.07180202472582 4.1544961764405794 -0.8161855014285924
2317 -2.113942292982163 -2.7116890963733407 -4.293782342668138
2702 2.4331276371903967 6.622100780373315 0.3754359213061912
2735 -0.866931642634835 3.3651022142524 -7.330988641194156
1798 -1.5642465021433174 5.34189988361324 1.1935027415985715
2800 7.770641358671566 -0.953974974679946 -4.91533819707931
2822 0.5957788621221185 4.547606217171635 4.417674659727209
3294 -8.52775854828918 -7.557575744537749 1.1162218623199995
2616 -3.4852421559880282 4.907960289858717 1.475835700113156
1592 4.803453959167356 -6.957716360959519 -1.358339038835791
2654 -2.2566993701400055 2.904416772569645 -3.5807264800723604
2034 8.321455406611149 -3.2344919161119865 -4.892643594761283
2192 -0.8547024693963553 6.7515943062877986 -8.708318626448976
2256 5.077046913730666 -3.463423908069543 0.07030795889065294
3085 -5.74070541554252 4.4867337843911965 0.2962533398485467
2798 -0.3560224942242641 -4.125976494491434 -0.18014360231775495
2462 -0.08243699975001198 4.277096757643274 1.0435140375447682
2863 10.967621770668497 -2.3375323339632077 3.363371897170736
3310 1.0966604190390898 -1.5278372504060145 -10.383425285283685
2579 -1.53256750178022 -13.89286639659021 -0.5911375855990298
2589 -0.949492568707417 3.027135579692038 -10.543013694784841
1849 0.45267948386532 0.7021552938655166 -1.276738399408664
2538 -2.0642501821312194 2.565903182328544 2.694443910565295
2287 6.408548017599511 -0.7636831444697454 9.009033271371687
2575 -0.9146949355374255 -4.929256405631029 0.9286458697313248
2604 7.671856277252041 -2.1554742513792826 -0.3561592958805131
2761 0.8279559411137141 7.165342809501023 8.416411993832067
2643 -5.957574612852138 2.9784248171793943 -0.5456716462003862
2647 2.803834627401083 0.27614523407270736 -2.229844045738562
2975 -6.044164963731741 3.150860802513214 3.8384729212220132
2483 -2.7014434700195946 2.295199639528547 12.504773852648567
2361 7.611577983058225 0.3413032234052599 0.37039959629124364
2966 0.4975647845885739 1.3667178838222511 9.94015701028803
2488 -5.315132636153041 -6.665038095906616 5.196539236591187
2522 -0.3696975358874312 -0.039427400030960826 -0.9826454889782981
2159 0.8247201721376747 3.962407990881459 -4.369197544972553
2871 -0.4373746648199305 0.12100077999344369 -0.8975903920683942
2066 -1.8010654458552298 -7.709591989733326 -1.9091898501866336
2990 0.3480156388576878 -9.270283247127294 -2.933338646277513
2110 -3.254291188381715 1.9459834864375054 -1.336518223237861
2104 0.6737771476946267 -5.562312617314704 -5.4313620263378395
2030 -4.0224618023622725 3.259549413194223 0.49742347708533324
2882 4.842493048796289 0.49842555767815183 -1.9314170155067527
3011 -1.2098628476079485 0.38329920512008603 2.457868589916394
3034 -6.788971821061063 3.144845808141182 -3.4030032127267607
2088 -3.259735353415905 -1.7545728000398768 -3.386467629977531
2902 -1.3744857810526192 10.784521789333056 1.6432598059333823
2079 5.099927415104959 6.707839594033236 -3.255581453867972
1775 -1.8040966827593572 -1.9202944791626584 -0.5266638347432525
2045 -5.260193675522956 0.7842216397928758 -5.026007857674356
2497 -3.3882810580999463 -3.1608288140979517 5.818952430766948
1767 -0.25456075941700224 2.869946858893789 -5.904752923004086
2883 6.165742164326679 1.9551975035223603 1.6059563342863081
2591 0.7205443225519993 7.450651956615251 -10.870311182462272
2549 -5.742826567545331 2.1909914001348905 -3.466606278106114
2658 -4.448806142832323 2.669913572102537 -0.4731906972089531
2812 7.997156320749569 5.637012446058794 -4.486793974240471
2805 -3.230655108459099 -8.536829322365143 6.357352762886743
2880 -2.8846204221800047 6.964244730270155 1.4200324557120487
2685 -0.6571691651038928 1.3822664239590152 -2.205383229797189
3071 -4.522694426415429 -1.4064144060688102 1.4862097336968905
3072 -0.17567344676278251 -0.5655268114977414 5.290486360430566
1895 -6.369699173227909 -4.046684837195781 7.852369519747649
2027 3.154544948168486 -7.576416292556575 -1.0422368604082175
1988 5.538778513496763 -7.517649443081463 -3.010997973771994
2851 7.4888549543183505 -3.6144692289524656 3.7348652215082576
2693 -5.73343190082484 1.302565171857516 -2.5747039799397555
2409 -3.826194441304042 -6.745755568004178 -0.015302920707763179
2642 -0.9441861368096928 -1.2744318042315494 7.854703526577746
3032 -8.795690745547812 7.380160777985683 -0.7764743875665939
1884 4.2037408652940105 7.007452681033383 5.777741184317063
1662 2.146762102586816 1.1655338033357545 2.774252663206694
2700 0.28096970364134155 -3.9644928554518772 7.88273468049013
2945 -1.1603093127480733 -2.9261869807219183 -0.23214835055480054
2265 4.755760261142453 -1.5131040844061485 4.388520832793078
2095 -3.3787342704139687 2.050208978867966 0.5999813193916212
2392 -3.5881719949257374 -5.622702168844744 -4.080810254252371
2866 0.866143972530833 0.31749911126552877 4.433858710222284
2550 -7.907484823672889 3.4545663331128837 -0.9487344086719213
2100 1.8480164642216739 2.5680138728248183 -4.464839153353858
2568 -7.759675514065362 -3.525141115877714 -0.4777124190383235
2641 -2.8392859894775375 -2.705794185552815 -6.940800563166876
2288 -2.1955878070719406 -1.8439242783154668 -0.619825761186092
2605 -3.8160001742720424 -0.19100607194099278 -2.2544764472920793
2415 -8.003654803827807 -7.614494131443541 -4.057819604049907
2352 7.8509535656581315 -1.4701343225340509 -2.49517225163645
2278 -5.653950187064761 5.812747176867665 -2.4462903514217826
2093 2.1604183339517675 5.45197729344659 -0.19527389944756102
2837 -2.9798102528513115 -8.348679521083445 0.7442377898700779
2140 -4.694986023703902 5.378553662785349 7.147689420645905
2893 7.4377031314830875 5.316625515377463 -12.459725493612876
2833 3.3648109980446006 1.3459939978921538 0.861485010205404
2094 -2.1414606549454236 5.3922013273752905 2.4311650397211233
2070 -0.5446251552426201 -5.477896053033771 1.4581020305508983
2606 4.877433355885705 3.5591274935385555 -10.397228053987634
2540 6.215361635073692 -0.909891985294831 0.6924099235400124
1657 5.21902148345491 -0.4816813021270429 -1.1211429779228814
2646 -1.7931219275565329 -3.350404642932211 -0.663096230156613
2222 -3.55985297878365 -1.6306748267898306 5.286975371432656
2795 1.103422181661656 -4.061584857524505 3.379734692651653
2891 1.8990612732319914 0.715523288995856 3.769518239132011
2864 -5.2914219535437335 -3.3537136029542673 -3.9251044336187864
3246 0.45241597386338983 0.21985377162392875 2.231409617947396
3027 -6.810946213521269 -1.708286853010385 -1.1140881464131822
2706 1.9032443910930743 2.6946898951165412 -10.776035190896007
2638 2.8538949687973556 2.4502626790122064 0.8212040327069459
3026 -4.187125654174012 2.6590712482393175 2.3859971721656335
2373 -0.9088772266474522 8.835382406477633 -3.5039851474363055
2819 -2.2241998751721526 2.46338896603428 -8.724705554361735
2264 2.728528130359777 10.406994913693117 -7.3725374550421945
2607 -9.683774338388652 3.148688672102412 -5.730006088441073
2025 2.470315464410539 0.9239933888563816 -1.6484514555579004
1507 2.9941825521248884 -7.5937144118260465 3.503895227422863
2195 3.0197138098572633 -8.521376553741472 -6.326385536197224
2659 -4.0510708677015055 0.2402308829246591 -0.9431959841213585
2933 9.217812944508369 -1.5302972422911971 1.9391056591307099
2413 -6.920270900718679 -7.238963412799811 3.0032611324362044
2420 -4.76847519629944 6.402247730486355 6.329637370386429
2754 -3.3831118666473365 1.9166076215141832 -5.3159384045851805
1136 4.475827971538136 -2.2681458530438836 -0.16826284225064467
2160 -1.6716525041862367 -8.901510006046495 0.799501073981166
2015 1.6064915381898353 2.562360614536433 -1.2914584548845645
1584 0.7722097729321973 -0.39167513902059375 2.3088676692713412
2343 -1.5600780383556145 2.3758878144133453 -4.778566337170408
1861 1.0193338157206167 2.012850460697855 2.2702396121899744
2260 -2.273366673708099 -4.58723443931 -8.44616753974219
1823 1.1151990844311506 1.4800220063667042 -3.9167306550686387
1856 4.8520377229461635 0.24675300750764367 -5.831866418551865
2355 2.9136293951826517 4.21038248176823 -3.2915707469588864
1860 9.87620713207394 -5.199418359344784 -5.468926946520849
2142 -2.5515320752577475 -1.729575726150582 -5.969611635345343
1825 0.8983260404260501 1.979655116177778 1.476578328165911
2143 -4.990380772409326 -5.167492334386531 -2.9408102233223468
1916 4.528372321253908 -1.7996585630047575 -0.4159577925986822
2440 -2.3601916042131244 -6.807881237361573 -0.5230000048066614
3189 3.5397545838537665 -2.5375590717779968 4.444958607392494
2205 -0.8713099056806809 -1.46117401867816 -0.9045479826829402
2272 -1.4699367955296292 3.3165374315849667 -2.452020123394516
2697 6.131753759920065 1.34257871024654 1.7671902562791613
2090 -5.251138097554273 -2.0131546047615765 -3.91040050344358
2649 -4.512513032923493 -2.6167062713115903 3.4080545204641943
2632 5.2565257943363095 -4.233888260997488 1.7696323603340678
2673 1.942229053891886 -2.508023956275981 -12.472315707005132
2463 6.634393391917651 -3.5844442331974506 2.3074710650454255
2165 -4.977895165544042 0.274987153116228 1.0177412836195534
2681 0.05947432862561158 -13.113284897186373 8.441215028981562
2781 -3.832854662281965 3.850515372966581 6.170188247391557
2347 3.334882811906001 -0.6641875482755764 10.87279653643398
1892 6.4558937060302775 1.3070721212088494 1.5243293626292316
2383 -3.1913515619725366 1.2781752931474646 4.286367040476805
3205 1.0987311644225795 5.337348493067541 -0.37649686560557166
1878 -4.16225261234088 2.3967125025831364 -1.712673346638206
2454 2.881844944267022 -3.7173585120425185 2.940161876645522
2667 -3.8503664401899202 -6.82820283725422 -1.254886805825928
2157 7.410764291076209 5.741642057602264 -3.3046472379820533
2164 8.673279170620802 2.6111451813898126 13.314425571869199
2163 -1.732309065525922 -1.693506034281222 4.5964832598182035
3142 -3.707097120837438 -3.0463674139191146 -4.093012037856021
2218 -4.895689134791891 -2.570329885147847 -2.38539715344706
1935 0.8062988183331934 7.722990248757023 6.38162236964914
1707 -4.327260251450181 2.34331469315127 -4.0746004503342785
2060 4.269972132396246 -0.5669941705396677 -3.47240620660822
3214 0.46553087912693986 -0.6163883795974029 -4.3653020141876135
1959 -6.220564058742662 11.747688151980032 0.6881169626835725
2422 0.17674786262421838 2.6441394104709017 10.646692972786463
3193 6.013661613361342 1.4199709592365213 -12.460743334433216
2403 -1.1815713849443645 -3.9115487480105298 5.458309928048121
1806 0.4284478695872224 1.659411607794858 2.391980419404228
1684 2.290570979935752 2.874987723811636 0.4586762282005118
2133 -5.079663030918567 4.655908492730898 0.87214773896295
1808 4.736727647168552 -4.856378031676771 -5.415654227125806
2608 0.5292538741481955 -0.6926135000030015 1.3701691646736136
2991 9.63834050721066 -6.382867520241475 -1.2393006768427548
2676 -2.2171790316660456 -1.0897096671588247 6.856719654486615
2928 -1.2775553460325817 2.4265405547591636 5.0023814156436845
2418 1.548139618436055 -0.9396993152795649 0.6106686482730965
2510 5.31466669156639 2.295652392337004 5.78115676468717
2548 -4.6276827428868215 0.3635317691570166 -0.9263048342401763
2455 -1.4078746959529442 2.2329893219149204 -1.0590740731802144
2684 -3.389744351400947 3.1462132314257127 3.3260838926943266
2660 -4.312923592495598 1.0852061520373646 -5.098607370005886
2470 5.226174241447775 -4.765729732762171 -3.3156899228329615
1790 -4.982630596094304 2.2399101840989935 -0.31582822191823734
2671 -0.06846725341222375 1.4096343180863549 -1.2947677276167346
2131 -3.7131669667314826 -4.9464176055747675 5.9375391424145905
2898 3.1757153864163947 -6.678604830979995 2.8282411715313254
2767 6.327033233217937 -3.877675520695208 -4.237683515034557
2172 1.6850784779558219 5.98852567321104 -9.28156602569594
2158 3.15218646433397 2.8099739510551025 -0.037403307604285035
2818 -2.0964893200721315 -1.8281543421083144 -0.28591170273673755
2235 -1.8531505130590444 4.556810166153213 -6.060920965535916
2400 4.297977665141671 4.595369166718094 -3.2845756126147596
2925 0.22975398165834343 -5.727442598243338 3.0549453328677094
1886 -4.6037483496672476 -0.5694174145705924 -5.476208662861255
2307 -5.762588120040553 1.6721537595759506 4.325756388726342
2739 0.5026752837855754 -1.4542274802713997 -2.5147019274358158
1765 10.225262196839616 7.996022978428038 -0.055122773802242016
1567 -3.4006680726616536 -3.347542126769433 1.4992294077891248
2074 7.358610756987291 -1.6223710266133715 -10.965479129965045
1530 3.180572905352655 -1.1439711762286748 0.8808447035672594
1999 9.62507512708965 5.712360452187743 1.285880415544952
2156 0.45545087571449094 -0.07678238668874593 -7.7312405099372015
2527 -3.9938337325762534 -1.8350176559442943 -2.029473979384975
2753 -1.0754334111062138 -1.8390621754864982 -7.8086199678639465
2682 3.60176419047096 2.3249238970811543 0.9407530395153291
2603 0.2677751114254797 -1.0580380650795704 -2.7246370557108484
2428 -0.7302379696296728 -3.6218349107054926 9.18234039614087
2886 0.006836505011383286 -2.5885016362691924 3.264180575550252
2436 1.3435214675203875 -4.3206496910635375 -7.699358008040047
2537 1.0324794184055037 4.1033672082417985 -1.1097345262628682
2153 -4.160829523200059 -3.2184578775149992 0.0239964763913654
2448 -1.603359720204213 -3.734143220352989 -3.3420378880216677
3237 -4.252062581358634 -1.2376840903790418 4.536001800366262
2944 -5.376505766629362 5.583762206506949 3.215414151755219
2434 1.94898030127521 -2.810404200520649 -0.9736531694409751
2410 -1.4899129974940053 -0.017627978505027758 9.999500609144267
2500 -3.8317267814356355 3.379060924437058 1.3329220882117276
2309 6.61826615414679 7.5334213192022865 -1.7879944847429847
2717 -5.2320233159857485 5.695549579391291 0.46725726574045
1996 -8.310786342736803 6.731233012265172 -1.0210790747175014
2211 -5.118534628573958 -6.5400555507322835 -2.286855923942105
1975 -5.455654543364856 -6.863968215691779 -2.9044402138717977
1490 7.0095940643928785 1.5280276702260058 4.440821258331906
2447 -3.0734885236336242 0.1799785942257066 -4.5651366995562634
2727 -3.053639241163012 -3.6908641122348627 4.882934920947637
1375 4.177619943072266 6.094237659803232 5.051402118700185
1929 4.385649119797085 -2.7356468354758587 -9.987393856881551
1904 3.2749163989091303 -5.758989015053578 1.8039915709107859
2191 -5.873243809745282 3.221156853489243 -1.3384168713161315
2438 -6.428944448676813 4.930644589963899 -6.6713192403932755
2242 5.862592095005621 -13.43494272389353 -5.294037801649726
2155 -4.9234258507616575 -3.768649272410022 -0.1144516390919699
2631 7.291630725673923 4.098345306839934 -3.7115764745458066
3039 -4.605815306371511 -7.009780163630977 -1.4711547723628855
2226 -7.756344254376328 -1.870556342257947 2.988799228497991
1167 1.7689638924147497 6.182296491602385 3.7612737008758326
2224 0.23199586598925287 -2.8192016638374406 -4.824673183793079
1957 -1.70038066989337 -2.1689211588729163 5.1790114077662075
1431 -1.549686133799521 -3.1574958411512752 -0.9373145863482847
3182 -6.792938375692136 -1.7139426264542639 -5.469690384814217
2038 1.7854080707173983 -2.8846452517980286 7.481234848717956
2177 0.8682993921200443 4.4360197855859145 4.6313794639640244
2199 -6.0503581929475985 0.1615796803361037 0.2742274354258454
2437 3.6032756992484534 -1.690860616515455 -8.497233274246687
2221 -2.460674680992327 -12.977031750033147 1.3518597499330565
2125 -8.861869453554661 1.3873586997919845 -6.176360562028347
1866 4.973589967748515 9.217890858223429 -3.3650753798261936
2248 2.187170743639724 4.286574928777191 2.934006714161273
2509 -6.0996534817982075 -0.5952336529467945 5.307224583511985
3221 3.6816968617879833 -0.43634723762223776 5.848260997259191
2072 9.40570208667889 1.5727756298365136 -0.8450217874997789
1169 -0.07760446371781862 4.955707490973945 9.278082011642743
2743 -1.1581157156593131 0.7962113045882476 -7.442829439287526
2745 0.9390032136205582 4.000205966393918 -2.078917816663543
2238 3.0655540749443624 5.579946393208583 -2.0374193066951607
2507 -4.467634643018229 -0.6795534144268491 -4.08514531879444
2771 -3.0106010217338706 5.139747882214634 1.3372566839866138
1425 3.3500873202521504 3.7024253279404844 -6.091288197497854
1938 -4.4325402079258485 4.099053283152273 -7.491649184153703
2524 -1.124766515933634 -3.194318568462613 3.1174854006497803
2460 -8.31375097985887 -0.7675155155790774 -1.4305095723841939
2431 -1.2723367268137182 -0.44180287492639897 0.4431700697161667
2487 7.409308723563269 -2.3514015735663323 -6.464246236626295
2452 -2.3525555117223376 -1.0995059383894579 -5.251824105531268
3273 3.136594696693802 4.546369030993921 5.801441413157485
2967 -6.708730098378149 -3.5342016970383936 11.472209772058683
2277 -3.5243179848518498 -8.917909860930306 5.456796727657246
2009 -6.409478538088966 1.382863891198702 4.688429863644324
2680 0.8072289665316867 6.69379300505631 -1.3492423214112175
3036 4.495720377018461 -3.788604707941488 1.3807398891417693
2748 5.355756193146739 -8.109024106761586 6.42933575291666
2714 -2.334933043909864 0.5494303332682746 3.9346766325707194
2466 1.679861199643346 -13.935223681902189 -2.5345244512448817
2539 -1.0097353060844743 -3.5114064049328317 4.326519137310579
2174 -8.80823014127273 -3.211270088786938 -0.2714282061302413
2006 3.8886118344755114 4.927819608882181 0.18760246538283
2971 2.1016694138817984 -4.101818277547014 0.4099564464501596
2243 -5.515005671260431 0.7289253978296759 1.576181562076028
2766 7.9138511132121625 -1.4570232700825774 4.300694381169856
2734 -1.6638849905376765 0.23835044075451767 -0.10572517979313384
3045 -0.7163514762614995 -1.5136861016118057 -1.2439866299112279
2246 -0.8181714428822684 3.269370204335632 5.996697001475721
2184 -2.2064620634112972 -1.8764061287528866 6.5200231796936645
1666 -0.47018760581377383 0.12910981913845676 -3.5111196016486623
2273 1.1204388378675871 2.6647853543685005 6.234786519139619
2815 -0.3286729533772822 2.000672739389333 -1.2793691107006426
2506 -3.761511377505625 1.5403178026593094 5.381648794592893
3266 -5.299830582892155 -0.7437889071610438 2.8091918379307153
3008 -3.297492736088987 3.6463787138250403 2.20778293088772
2340 3.789167043429977 1.8726775152349802 1.7256445320246527
1180 -3.794297916155394 0.5508697855653345 -3.1855605580514763
2578 -2.6661483370196186 3.493959329821576 -4.348034429525868
2380 -3.8897390951579864 11.833065678057048 -3.213267935086525
1423 -4.627773781477677 1.5569946080168962 3.633772485371408
2337 -4.812666008186181 2.1240504046945925 -7.290685445680313
1712 0.07296436192355549 1.1878385885457965 -5.1763454401814
2445 -3.3346316801399527 -4.865293981713663 0.05299280978694891
2782 -0.01763568434626766 -4.337578010327249 -3.881014027626484
2331 -1.845192828983941 -7.60826804095176 4.935042890484519
2128 0.7482854588449179 2.4585505272642516 3.784746911100205
2294 -6.018891345325186 -0.18730862159371947 -0.6904668584212035
3061 -2.8309755592756702 -2.926359532307686 -1.3542030930376556
2804 -4.895899213575824 4.6507366693403 2.9406914830500646
2764 -5.958220115903634 -1.8684154620314586 4.641056760090397
2496 -3.911268664322936 -0.8098877584898434 1.6524673901510845
2577 0.02433495175354638 2.393533770035074 2.3409986137996843
2862 -2.666675429514693 7.526241301820206 0.827475645657521
2799 -7.953494893240022 7.060904086818632 3.257286653389279
2098 -2.877546140539738 2.3074009036401315 -3.17236273452455
3025 -4.061754345541617 1.7017638296810575 10.534652603821511
1905 4.967952663530514 -8.826777670599357 4.0778555832018775
2656 1.3237208170711914 -1.55088826361699 -6.105107189500796
3253 1.024342713148576 3.1222021347885676 -3.3459084493650972
2232 8.820473144749455 1.8754238699420793 1.2004043491182972
1538 2.3690701658238202 1.2024343928219503 6.705206142821205
2831 3.1186394039924257 2.451091315223973 -5.352048041980011
2559 -3.267884407919872 -2.2070251199034354 -0.9881947417482737
3314 -3.452168072441517 3.6764669079184022 3.4766317368486024
1847 0.18595929123054544 1.7517929146678515 -0.6742264406075094
1740 -1.6536992414991307 -0.8389024497732733 1.958986549387421
1933 -1.1667788599940163 0.7575112988196865 0.4556503409190324
2807 0.3356548012197808 1.6659570048128343 -8.739709097521635
2770 1.2199218356012833 -2.7252793492310654 -2.772970780556312
1291 -7.803930712496921 2.38270812466871 -3.2623130447116635
2711 4.592836364019407 1.9820593313599422 -4.214985466215474
2482 4.272458877765825 1.352095665755213 0.8273818581371264
1843 5.357898733506098 3.215858487048642 -4.29605921666543
1782 10.025392230273196 -3.2614524752099054 -5.834127468718331
2202 0.29698406377115055 1.3180590268753114 -4.395571619076645
2541 4.06592247585621 -1.874726657562061 -0.29008766420711257
2930 -6.48038657354813 6.678985375132267 0.649659151985829
3281 -4.336996010143798 -6.7241386658946185 3.328288625648783
2300 0.37588317016285216 3.244408644877288 -0.7425015367700128
2240 -3.0570203609555304 -9.75771304573372 -0.2310132658650024
2301 0.7005499463297731 -3.2450008183320227 2.785689960172248
2011 1.4975437152128657 -5.0927989205153645 -0.9627033531623506
2292 -8.881399858184212 -4.692900161942947 3.275245299925918
2492 -2.471238661050982 -4.8822968940181966 4.263298801490236
2557 -0.8281137712411981 4.000971361965089 7.638820615199763
2305 -4.430453807454372 -1.148695426332663 5.850065003255317
1159 -1.0593300216943131 -2.0365966769495123 -0.18974857550417873
2262 3.319675845467176 4.008022601581031 0.3388207954830524
2255 0.04006132977641158 1.9532512883018467 -11.362938504485827
2471 -3.9956879532385683 1.33267279533266 -3.552093327980083
2493 -0.7415791301307609 2.884449616884609 -6.95485141852526
1794 -0.18996114023248753 5.59641224263422 -4.158163663102687
2071 -2.588302636398237 2.032033558434162 -0.09188233349377381
3093 -1.49100034279084 -4.307862284183694 9.074892592812185
2119 -2.1314806495290117 3.186353509460518 -5.197575752020942
2760 -1.8784891517768454 -2.9223260179755606 -2.1821300382795688
2779 -2.7078157012241095 -0.22551097626970698 2.199233600556109
3102 7.552870420198542 5.941620572012305 0.7460514038195538
3306 1.4258851601559261 5.327012120544677 3.6645998981189027
2338 -0.08182581512854514 -2.279622078843425 3.2851806437890665
2722 -2.9209657133852476 -5.719206562824199 0.8222917265022289
2791 -1.317693842144526 2.4850611102459785 1.0741004415443913
2847 0.376164563416133 -4.960529154034909 -3.1151042530831257
2820 -8.04365990226532 -5.17326739950648 -0.06963611607715967
3137 4.430990379777065 1.6388741622532437 5.4903456288922765
3077 2.0234844759904953 0.4180581778849459 -4.723948969208244
2903 -4.280156592998339 7.431547250252999 -0.0386821089542513
2564 0.38552352807077817 -0.7179226587706451 -8.619069280509976
2503 4.617223147306428 0.5593929448291662 -1.7909717427980774
3046 -5.959795386246654 2.34123193981658 4.9152511589578545
3109 -1.9461830351407292 0.15542890909710697 -6.894871263750461
2756 -0.6137910192727369 -1.117275244903953 1.2674562983662137
2621 -2.7596339964129166 1.232395104719795 -1.4132922615550179
3301 1.237107616631502 -2.1414685429899003 1.5243176853183362
2299 3.6958622042193188 1.434038562248405 -2.5945849909692
2773 11.867072327056894 -8.23717981860205 -0.4775132996294956
2858 0.9801631902167991 0.46682108021229607 3.110098647709691
2622 2.4105189649212635 -10.660173535917078 -0.08566744536271223
2587 1.370036824057496 1.038959155890307 2.4644869962845375
2595 -5.095999752741622 -0.924038966340054 1.2603578904499906
2339 2.9952859124563536 2.0381111884462784 -2.9929546933077087
2491 5.42550702420853 4.530355968401471 0.03873113907377222
2832 -2.121688846173215 2.7716756710320922 3.4254118082435503
2801 -9.02761410091626 -0.21728566592967752 3.2358283366521365
2615 -1.6687203667027393 1.7590152179204348 4.31420168088215
2601 0.36330711853271647 2.2950864592581346 2.837210450813045
2857 -3.782372375474526 10.388228091939224 -0.04137606051436952
3060 -0.04940307621635214 -1.0314849979740608 0.02459600471732555
2612 -0.8124978310895045 -2.6131119269865692 6.6259334183610745
3019 -4.543664131196625 4.247232744271935 -0.9906409200185303
3153 -0.3778749540718952 -0.8511282313543588 -3.963504612300036
2275 -0.72625598659605 1.7442733643965362 -3.8236674761559124
2386 8.371092473417416 -1.364389390950497 1.8086387965791422
2087 -5.268004186523273 -3.4084164549200344 -0.3465897832573419
2556 -1.145047644345727 -0.40942140163652857 -3.5180232406808325
2834 -1.1946400738291767 -5.4828596654100386 4.373520753757118
2547 5.8405583876485005 -4.687637528074797 -2.270996261116741
3086 -3.0438928757540364 7.4873850952117085 3.2242793818681075
2836 5.931201645397723 1.2925321225811837 5.529357325949264
2803 -1.0393524383817239 4.7349542112843315 -0.4392886186915675
2571 0.3248031685089513 0.963103758892347 6.454266208539842
2508 -5.476881284285325 1.2346567011888354 -0.5281419677410687
3089 3.390861547550564 1.4616295628296454 -3.340266868322818
2934 -0.6348931541378069 7.225721266757549 3.0983025914800306
2542 -3.644793313832943 2.3558994910193585 0.9154287817804961
2768 -5.9282189629168345 -10.06884306970548 -0.16745212651690308
2613 -10.826410872416718 -1.6062982679594746 2.2025700424329497
2031 -5.517031990731666 3.011991309949645 3.16685605439038
3117 2.2786324619704788 -6.497705424033522 -3.6108778046157366
2322 -2.60594078111761 -8.099069548413672 3.2913319574958266
2080 0.09329587633155331 2.977594550844344 -1.200219193733393
3157 2.6332132265281714 -0.9600265880083969 3.7684856173709096
2365 -5.099247208904184 -1.209912904944254 5.339265277602308
3118 1.448638198031 5.195427840868107 6.253016995169736
2102 -0.7019477598090438 -3.6014602010253856 2.377901934221532
3125 4.599546252837422 -1.5466102924310392 -3.681769782600797
2844 -2.372460188194121 -6.490467457372089 -5.5235947533516985
2852 0.6955505573840933 3.8560452131060408 2.8659999598629864
2332 -0.32935870492412517 2.2938077842810576 -5.217055448126274
2908 -8.402853342984976 -0.24079181816290646 5.03772491865353
2896 1.507888695012783 4.743628516242161 3.382005225287901
2583 -2.473536016748149 2.8447090006604707 -5.128855451319074
2839 4.528713061063178 0.4090862287339077 1.8620225060896942
2590 4.866408395386478 -4.857025164129632 0.7219632648784459
2876 -3.0310530140719916 -5.620016919127499 -4.5354527577395585
2825 -1.1027365130961722 1.7291841555009002 -6.4578510624464425
2334 0.801543801164342 -4.92378800274903 -7.876172292553603
2874 0.7925933341543586 -2.183816665757459 0.8160080307234279
2620 -2.0333853628374987 -1.6072334902710643 2.7506055720174296
2842 1.690536785271258 -0.34955518367005073 -4.07386927241859
2563 -1.5620964759647915 4.1103433716854 -8.20802318427464
2884 0.05728346798687846 0.2738318764904506 -6.396688370503801
2846 0.21068600860712855 6.578159335349912 -1.6053670634289527
2657 -4.316308207579767 -5.586483650680253 4.620428886873318
2780 1.0459033994772704 -5.293592845094775 -3.7108941568543514
2076 -2.4527679373191305 -2.2571791986047547 3.093152192039303
2353 -6.966548366401508 3.521620320610856 4.037666049877024
2867 -7.135514239082245 6.348757260597134 3.657481780469853
2513 -3.1931344722018697 -4.094975676750852 9.305920744615841
3001 1.1320850942144065 2.566456623832949 -1.6320948634249701
3161 5.434221875986987 -7.685135249001803 4.319006390422914
2687 -2.058086760039902 8.006575613108168 -1.935234414339299
3049 -4.269504737280005 1.7605995754024664 3.931324139037666
2593 -1.6215597264546058 0.10105473247409019 6.143289892276146
3138 -4.002584557897504 2.751972063022966 -0.10275209149352857
2120 -1.5500698538349844 6.837082346333912 -8.177743759759535
3133 -0.7216003926380584 2.840493237136223 3.9163539527845694
3110 -7.323782177996727 9.690601922062312 8.961797963757311
3078 -7.663369282115156 -2.3856941345785834 -4.214695990175866
2878 -0.9097975015688623 -4.066375068327173 -12.480786181438512
2683 -3.413503740540753 -4.24530278430354 0.8086204429610236
2792 -7.590114300436211 -3.579287370744983 1.6500457178545607
2817 8.12894298577741 3.9930035783767774 3.5740350017377263
2369 0.8062037231048576 4.79499124060101 -4.425262671690898
2394 3.355216524074969 -8.401316260741439 5.68446761252632
2721 7.75575578529891 8.073060351831591 0.6502488958183104
2916 2.6162672099422224 -2.916457941199275 -3.1271715048494557
2594 3.546961331871282 -5.805648981976974 -1.647289814442349
2793 1.176453672140465 -6.333493796635169 10.533819855891009
2890 -0.3226601886209766 -4.71253273893427 -4.098946922016034
2599 -5.3119715528095295 7.339180912914786 1.7738306386443932
2670 0.1683282825958683 4.983132524913745 1.4745222791714059
2856 1.5503443816785094 4.183099135195775 -0.5946113981591685
2107 2.577838370749557 -0.6442902311325075 1.3971560150577031
2730 2.6832613316890725 -8.671392582407105 0.5405722792590731
2669 3.2537366973142294 1.1621300128441718 1.54978766711615
2384 -9.067416729788128 2.6002694769817656 0.3206567307376877
3113 -0.3034754109790498 3.4834846878854138 -1.3889075505019015
2351 0.02218382580124967 2.481962917130841 -1.9609729463659642
2387 0.11792540237214123 0.9521786167294296 -0.29549810726948256
2627 4.979702877402387 9.017413486886818 -6.046775660501298
2479 0.05843810593291227 -0.75357927151835 -0.5244499731902067
2918 -0.45772683436946227 8.099924371477519 5.48951869752013
3150 -3.912066013891368 -1.1480927358251747 -8.143007448944324
2393 5.22200758377991 -5.479622562729669 4.0392291007964
2576 2.5953185737620528 -4.6922042803397535 3.6388198682765247
2315 -0.6643044288315321 -3.814366919731084 -6.057712249477217
3081 2.8239911654511176 4.077043272200039 -4.972663596181667
2321 -4.305980627109656 -7.981908534388778 6.558150054235898
2089 6.271582642944885 -10.57156064000826 0.046741746043410394
2639 -2.2811102706176656 4.4415325801679 -4.461067289609709
2894 4.659304660760748 -0.6252359461845638 6.165897242279626
2637 1.0093119964235184 -6.5102629554854685 -0.943771956710579
2828 1.5203514331609564 4.717589256775077 -4.814592446298036
2614 3.922048197197175 1.101686880878627 4.299422170465706
2636 -1.591374204527076 3.1936785141234183 13.935297749270815
2937 -8.858398379776604 8.418993398792926 -7.245897151289198
2675 2.5940243073604266 -2.6371788090127057 -1.7633594305923792
2677 10.652030614627854 -1.976628013003014 -5.749635659689644
2932 -3.9425625075744257 -1.0187084356000304 -3.3053221240524673
2901 1.701705476545108 0.6013587991626339 4.2117864342252265
2865 -6.579537075421639 -1.2240157199826005 -0.889607402464292
2939 -0.39318106441805095 0.7251280136923152 4.494237293075928
2395 1.841395822547147 3.232945130783289 0.5431053604452849
3070 3.6305012295780257 2.8595297779017366 -5.534692041598359
2907 1.5682786187133944 -1.779846935371727 -2.630655760434872
2719 -2.941389378202872 9.779524592045183 -3.278666750398444
2653 -9.470247874136627 1.6901092570300607 2.6861410215337376
2398 8.141438307776218 -1.7013761273588004 7.6942082963523015
2811 9.699698923583412 10.092971499693107 -8.653586348592125
3122 6.05577327661277 7.601331211412798 0.871848361667643
2655 0.7115176709428517 3.5994347388257752 -0.9838690460411178
2391 3.445220440978454 -6.591344898723219 -0.5766131484423015
2976 2.321448766610798 2.2067163934789855 -3.883947214485336
3098 7.893151935915492 -3.2627328768484087 -4.585696216792235
1970 2.4647964893425853 -2.388187994575962 0.16142994294381832
2679 -3.1466988388897175 8.861659109386721 -3.2069860700799504
2941 0.9451403837226298 0.7056540359282033 2.8326003735135115
3198 -6.383853005646103 -3.4569953489890057 -0.9599061292020348
2952 -6.575681063469912 1.5912569895649855 -1.0796153165306572
2399 -1.0585528999666822 0.4892947459165884 -7.44852637688573
2132 7.914578607320369 -0.21368187212195405 -3.1809280197660663
2938 6.5039653707960365 -3.8130715993537225 -3.2666992398262416
2624 -3.6968179778284074 -3.797163466477492 4.401595376604573
2333 3.726903325869518 -0.43626719085508775 -4.208604017307813
1912 -3.3446522199383804 -6.3226257910813475 -1.6877345957098513
2845 1.1103017727633744 -7.422116652062161 -2.035502855685291
2552 -3.644028669606754 2.5801608131078253 0.1463627925626429
3043 2.3845722334916286 5.588844584651221 2.8513312518554934
2148 3.3452569801223517 -3.1223828246882177 1.1566804989241433
3166 -5.150541699053922 -7.661494065376078 0.9169728722615582
3194 4.359966420566637 5.509040988269132 -0.7492705100976919
2597 3.2929588873658666 -1.6419838989867674 0.29150090576566634
2495 3.564676998262468 -3.714701872577348 -8.030489207324008
3041 -2.6063459110586025 3.245092976457247 -1.8853220255668572
2981 9.554228757528685 1.9356462220585904 -0.19521189297867847
2718 12.829569009651088 -0.5597425474044011 4.666213794906908
3173 0.5191137863077719 5.396526775612813 9.980749473803046
2179 -5.694794006350109 -3.7709313871511774 0.8064633565166562
2476 2.96541069037134 -5.166558755172053 -1.228859776786249
3206 1.309936884610554 0.17760333570561065 -10.500014027875913
2977 -2.6981764180299175 3.2789862614988126 3.9921851952527607
3177 3.8953149669745173 -6.324925700955553 -1.847900226706618
2728 2.201389841867167 -4.221953997036028 2.8185156662929227
2366 -2.3067198336896855 1.6551560392853137 -1.0209286695527249
3009 -9.06119386156989 4.26557245802618 0.15997072660579423
2751 -6.236786166303543 8.3095875708092 -4.419329218405435
2855 -7.749442761287284 -0.018519743895989413 1.7619848934895759
2664 -0.0706642161272624 4.508786243223341 -1.6385948852322358
3201 9.063224154634527 1.5675637752823335 7.516006771584367
3149 1.451260897102818 -2.3109879790635315 -4.883618282540272
3169 -2.51695692419977 6.1518240486191695 9.549348615631283
2407 5.734738077131929 -1.8168491356736625 -5.742352713501988
3210 -1.8077520756289518 0.7907770084359361 2.9508073594088295
2920 1.8841856450249557 4.535254000134756 -0.035607286258546936
2954 5.402866308169888 2.056279821815997 -3.2715365035835293
2924 4.020092924959708 -6.556823381642248 7.91457654259466
3209 8.204351736225398 9.498277878592226 6.737151294325234
2531 0.8431905267367314 0.16959881463272097 -1.311259627070647
2769 -1.0486986172183002 0.6309245362960378 0.07655291057011551
3241 0.5083492667317692 0.8889441311405573 -0.537093630952731
2312 3.4835917384196766 8.053030529041527 -2.73081750078771
3178 -2.741656155221532 -2.182751380647703 -3.3256703566906483
2959 -4.154283776613615 5.363138553551262 -5.985065436263579
2367 1.9761772783719183 -0.7586961934200601 -3.4525151116632244
2674 0.016335586959180012 5.3695614528964635 0.25603695557882306
3278 6.900073737066611 5.869775779020734 -1.9918067318958914
2996 -1.2074449204350002 4.620884015834188 2.9950847052244067
2949 -2.447420234854732 1.2809259945964373 -4.217460055991802
2955 9.306730546017656 7.172306723137979 1.6912058078735732
2134 6.667921719029123 4.848509684669544 -0.8624967842317393
2713 -3.582220272338555 1.39257465351763 3.4825475836636417
3170 2.7818805972360603 3.3774874744330408 -1.600923412519902
2962 -1.1127838950817803 -6.35774379599996 10.249198024712749
2963 -2.7882421970174898 4.623291022302971 -5.249521541565303
2348 0.7508252953094738 4.623165676980618 10.409790497312441
3066 -1.518495078488748 5.881290159866425 4.427114571810479
2412 -4.651266510724982 9.884288685428004 -5.735762070068823
2644 -2.064649116225509 2.2227115982852403 -5.355983363416292
2965 -1.9215471582706918 -2.3309822742294672 -5.647088552419507
3021 -8.420196156506906 -2.809156035311882 3.9032655870379283
2678 3.8227546121730303 8.022520310215214 3.5554369120463427
2652 -1.4732146656974079 -2.1852703888608462 -0.0010915991404077258
2813 3.002567657012367 0.5502945512399382 -3.742647135502713
3213 -2.097946818227677 2.3909655091469078 1.998721067936841
2733 -1.636464411197696 -4.737296538705464 4.01724085130083
2716 -5.059864091287119 -5.331920105073174 -3.1292598771069726
2746 -0.18609020039603402 5.5569822120878385 -0.43339043231978086
3186 -5.310187768758028 -1.8716070775567815 -3.1677352962440266
2389 3.81286489069053 0.9208101204732959 0.9006521257563789
2974 5.799164770638289 -0.521988890579409 -1.7269426039006717
2909 -0.1928815296899774 -1.3438515402188826 -4.139901083542369
2784 10.165726572560676 -2.803837320041161 -0.9206743523603259
2964 -0.7452924538989176 -0.518079322764895 -2.8820369390621283
2897 -4.643113803905938 -5.183656078199827 0.1349355964462385
2465 0.9035306296196379 -8.52110513279151 4.5577996590365215
3197 -4.688064058381843 1.7890813796020846 -8.27477371527262
3257 5.139498139276829 -6.534199895104906 -7.278896893405091
2263 -0.4046115819019779 2.725991224563931 1.9282670111380962
2710 -7.232353114653115 -0.0077818250792912975 5.19358763933437
2943 4.504815203878335 -9.361643158922595 -4.017145743388537
2750 1.0115560931468808 -2.3545560544166477 -0.9272651253298988
2724 0.9619279550478474 0.5011735012374738 2.453964379741807
3030 -2.4848541895224283 -0.2734709187775116 -0.44720988815006146
2432 -4.071719224145617 3.826847516666879 -3.879267622059215
2919 -5.816267960692556 2.7020944886260896 -12.626072178139701
2162 3.1299767162074783 7.877164601308868 -0.7584893037862874
2475 -0.06240579472758239 -2.557243669985053 -3.178888705547871
3297 -0.6439754627071581 5.285123168679773 0.2827533154796838
2973 -0.23358616258673132 0.8736677896815264 1.0083091190722564
3040 9.848004709199811 -6.378276410433583 -4.934891736976545
3218 7.0783634281473 2.2244073756446827 -4.781714240835817
2695 -0.5462985515042353 -3.397104197782233 2.7357309627380264
2633 2.876493348051774 -6.269270964557515 0.9262237287913213
2979 -0.8925131063413337 0.3478639476019055 2.359419272779956
2950 -4.615329540916406 -8.546678871952798 0.12193878483832495
2725 -0.3301777169719047 -3.5496950295991496 -3.6879677018391517
3018 3.0611053227499725 3.1101401188779674 2.443308002328214
2699 1.1699855148499367 3.3705887121018625 8.856040383311838
2151 1.3357521080679369 -2.951928927416386 3.402084614754348
2565 4.672920991987522 4.891737240787872 -2.266004249820201
2849 2.626108968387777 -1.5020290678063708 3.7959399575211483
2216 1.8362665810296368 8.441986048805706 -3.524577952015711
1961 2.2269128213837166 -6.836796831462841 -1.5973199691274318
2732 1.3691938254333724 -6.3432631553692165 2.7538294975257895
2790 8.673930398585155 9.880584837057082 -5.160382920398517
2663 -4.214109520057653 0.1978224695259222 -1.4411303583081299
3265 1.7315141384853796 -3.329006848262924 10.733910526851384
3309 3.6519190754827977 -1.1273608442562901 0.021765246088425387
3013 -3.516916544456453 -6.625424589493221 -6.914295002750731
2821 -3.216579454951478 -1.2144968194354795 2.736194752705703
2570 -0.7787608645290083 2.0062470505624144 -0.5903299074291746
3146 3.788161747276007 -4.549690610462527 3.4148073765741462
2672 6.013850007397034 3.2709187036881713 -2.0273551341041807
2490 -1.5524949476032295 -3.825686025585746 -5.690588083447091
2374 -1.1658608568824012 6.667960505674433 -3.547835228766506
2536 -0.5200208919984443 -0.555801304346461 -5.748787130305142
2736 0.04278169027978092 -2.6200861083248617 2.73630722895083
3064 1.3739876007488683 -3.3006912361501977 -1.2151119520297522
2910 -1.2948466845199493 6.457139097821522 -3.6603010318289013
2451 3.8710998157062764 -1.9715184608557976 -6.28284087290684
2762 -4.276935586663252 4.948425016947486 1.1783830648962632
2984 -3.6974174325120583 6.706307379970857 -6.585573192949093
2453 4.0795809739343705 -2.8462808752550752 -6.82513618510506
2983 -1.2713641929533657 4.844296780928199 12.739130943966384
2708 3.8735619682714413 2.2168562576935726 -8.180377361516054
2729 -4.496330562107881 -0.48275976843984864 2.2709768261558305
2478 3.2782982821660203 3.382413146725202 -9.67717127240153
3055 -4.110839074972717 -2.951111632839589 3.5098719654949324
3249 3.7697063661149186 0.10005936361266513 5.198431039956036
2774 -2.9819334731443106 1.5933489393179419 2.6674059079454255
2776 -1.452983794557617 5.16683634851695 -2.0190232388526947
3165 -1.3579139750485714 -2.9754831830273147 2.929625425917363
2489 2.838084625335435 7.623751174267932 1.349249383246662
3230 3.454604976473955 3.294378990633818 -1.1874951247566081
2906 0.20843587691521143 -6.840068506916804 -2.31747938703978
2390 -0.21500753738386122 4.309240730692981 2.4850319512418326
2994 4.235975884033062 3.9738097129866112 -1.799003885665142
2709 1.717557357879174 -4.606083664077589 -11.098797599685478
3285 0.9163992954194323 -4.689670062237786 -6.398637931883455
2560 3.721098302245322 -1.252179997664551 0.9552967645601894
2788 10.702658725505216 0.026463124225001352 4.068308298751062
1176 -4.572412721131677 -4.57732208688158 -0.7725493314936778
3233 -1.5418424394870764 -3.3165646733046654 0.3947384774888241
3254 2.3708390370633956 0.5223673240569181 -4.4909279223362075
2457 -0.07745609655568532 -4.164089837421534 1.9478244489995609
3258 3.072582812565572 1.8598997034213256 -4.269342346663615
2253 -5.6326636458500365 3.2308354134568353 -0.8833000268313305
2778 -7.983623620130701 2.115710253366067 -2.161931620679883
2236 -3.6825870010006088 1.6423777446369319 1.503137375881601
3234 3.993421871698995 -6.545125355818096 0.40038533483104566
2518 0.09028828420830252 -0.11695700402732051 -3.6568969564707543
2749 2.136700396417327 -1.3856578604214558 2.1204775773034616
2696 5.164234971479175 7.7330896708713555 -2.9140513399171333
3010 1.6657163851534715 -5.306223361948431 3.5930700778471514
3014 6.014642595009084 2.3779619143768 -4.392022010965413
2247 -3.2160776467435777 -4.277075022358448 -4.401152259532479
2686 1.7581603811061304 0.43077654878936605 0.5215913073224443
3002 6.80027492599043 -14.43732030121251 0.8895232754587871
2504 -4.221169239525944 -0.2003409777926544 2.887335386128384
2270 1.3258739437940523 -4.278651613495833 6.942041937276364
3038 -2.3813787738850163 1.5633109675676806 -10.449610325804665
3302 -6.876921216664678 -1.894601813212207 -2.3386310461627224
3044 -1.1463368298675605 1.41384916493502 -2.917432539809803
3073 -0.1162898414140463 -4.5677730664990515 1.4631886684155573
3035 4.502433347597024 -1.9512249014393657 8.059397007099188
2758 7.174840205126563 8.175414940430853 -1.876088900066705
3298 -9.554809001256706 3.989385189246715 0.42916589759680235
2319 -6.0890380790164516 -5.703568078850365 7.776704422833919
2726 4.269911056172841 -0.5909915517489756 -0.24149824918042165
3015 -0.46066393375526166 -5.5262142550875035 -2.480218365417057
3277 -11.701222227254393 0.463932260356813 -0.22781667161458824
2554 -0.7614609227765375 6.041338690509108 -7.449928902732291
2980 -4.667040430784749 -5.511966855600426 -0.23505031929970846
2041 1.0396295885776619 -1.858550583450385 5.939463851264625
3024 8.394017705927903 7.391628256874066 2.2458615388949568
2982 -0.4101464582830548 -3.9078042962720385 6.029600641602814
1708 0.07171865827858329 3.3236834340764787 2.8735941497499007
2946 2.5639126634922174 -4.4247011891431285 -2.348200461453773
2744 -8.48641174070814 -2.210868431057624 7.538085084721226
2827 6.001660015979691 -4.637626781195523 2.6274195663839013
2738 7.376276897539771 -5.1474528076734805 -3.8630589097339305
2032 -4.018962032798144 8.467875237604591 1.9352498112264873
2794 4.321831485576187 -0.5341558492314613 3.1923662742944314
2511 -3.5368636332354786 -1.699844598282137 4.71182764310299
2775 2.1986872961516095 -1.079514897932283 2.139066365513106
3022 1.1341734024131291 -0.06307383019383087 -2.382448795072772
2588 1.1917502836759768 3.9853562477586615 3.3476228537936827
2285 -5.04316592285263 6.739232466368351 4.272692775055432
3023 -9.087071555068139 5.555066888151999 2.1549938439660274
2502 -9.110617158288019 9.035193720901743 2.072765069073905
3238 1.5744531665950772 3.8251064803467028 3.7933862319520277
2081 -2.198065374887082 -0.21714663487241842 -9.004129022353249
2797 1.3420757321108951 0.32221017362891957 5.688287539266985
2252 -0.35540521565661276 -0.367934570207711 -1.1032999102275973
2251 -0.30754394551465436 1.5401160481307086 -2.9312559634487556
2345 4.563945254763732 0.4722566483637953 -1.4414492486254193
2566 -4.906471427843846 -3.2957764580708875 1.696417340562237
3217 1.0687961373156578 5.6980038808016005 -4.762820889156901
3033 0.8954217216421448 7.031013700891039 -2.2235927946509157
2515 -6.497116501100473 -6.665384853038414 -1.0881737874022954
3321 2.725272309924756 2.161275247237148 2.0087820047811995
2742 0.8356643797124521 -0.04033386295036908 -2.334888919173632
2740 4.192534936199448 -6.084728626279966 -7.214315885400324
2783 -7.83715412811438 3.383357386960357 4.6477122203260315
2789 1.2368276598782342 -3.31011666524319 -3.0227526404868144
3101 1.3911993854177511 1.4118996277943021 7.640749485192574
2940 2.486586005551422 4.6664119279474665 -1.0050775951097144
2459 3.453762065329373 -5.783125480029872 -3.335466677934869
2712 -0.7610089739922101 -1.1939191506043423 -3.5233513080758985
2999 -0.7316264051032391 -3.4714354243594925 0.14252767634578536
3004 -1.0398112956671521 5.824550235499033 3.6710078130969763
2870 0.1316822608305671 -1.7372429304579682 -6.128255717914461
3058 -6.301209930472461 -3.141460399277666 -7.617391170208271
3048 -2.9035797788036564 -4.613240037291898 -4.424472581517096
2755 1.315305996550984 0.6135375588947114 5.34031510461965
3261 -5.0279196941301025 -5.2311587199234975 -2.6547078940775792
2809 1.4163309094436438 6.6312815057956795 -2.062887287177181
2879 -5.437775668771888 -0.0378544831729621 2.868769476712334
3029 5.474221571955867 2.6194597561314326 -2.91413110540008
3042 -6.5618167744667675 3.540537261936144 -1.6561275082766516
2555 -0.32235179625838384 0.598328167632082 -0.8379867624783601
2936 -3.0645874633402697 6.596941881209005 9.968017818850475
2841 5.603592432400684 0.11417866802013962 -3.499341401375041
2514 -2.266349031231635 -2.205839690463513 -4.164935153590047
3031 -3.581249719276631 2.104584467703309 3.22812912171978
3129 -6.131868818411745 -5.217196209712209 4.655099972346751
3074 -1.0359198276018946 1.6178876444145482 -1.8015551939311978
3080 2.5930181176590255 1.7672276009227905 -5.2936221836109505
3107 3.22837703503491 1.520811613069927 -0.659025864027782
3330 -6.307781657221209 0.5168699238985799 -11.926825518087783
3365 4.763113736542218 -3.599093377681636 0.45085084436190764
3076 4.24732991449622 7.94612751825224 0.2026885232837906
3361 3.8234135103307016 4.3269536882487225 -3.28771335225616
3305 -5.152265132917599 3.8779463813119155 1.8553977781626152
3333 1.221542810147597 1.6975359832563763 -2.2309506118919202
3134 -0.07084229872495384 -5.229220659817542 -4.25923391668418
3108 -0.3899177059162303 -1.1343859544745687 -0.8918992435850228
3075 -1.5479973986854334 -5.854233750618652 0.34491015564179694
3329 -6.846225500001408 -5.139812523693354 -5.406710376408789
3112 -4.417553086956154 -4.628666625276575 -3.423665587116653
3368 -6.045398507685875 12.859540373181042 0.36692958175738155
3364 -1.8642991000202596 -6.412850546955015 5.183299021061579
3336 -7.447303931760246 1.3434790857178927 -9.09364020084365
3020 -2.70881013830004 7.661601812010903 -1.9034107292090914
3334 -8.691253271711542 -0.3465010034978775 -6.908706296240153
2796 -5.257079758377799 -0.9148200241709767 -1.9734569564883804
3111 -7.1463072811767265 -2.202825903092698 2.1429855092221595
2830 -7.113273033456002 0.38847604986915485 -0.8222996067675574
3084 3.1874719082617657 3.2365864523302568 1.0699617453028454
3115 7.837918444392119 -5.225352350546074 7.580503315709499
3338 4.7762335052072435 -5.363784987023246 3.545552806465029
3369 -7.415195462403132 0.7063250633382386 -4.538599484562717
3116 -0.22272406392032398 2.468448004002804 -3.268779226657722
3079 -0.7616878161030309 -4.408288541240114 -3.0957267505594723
2826 -2.052323057909652 -3.0718852853777543 0.07253005296329754
3337 4.839077521983627 2.797840600816578 2.4281142156444293
2731 -4.72894093530257 4.113945311133611 -10.285418730120703
3083 -1.703646021642644 -5.853444074300161 -3.003962831041273
3373 -5.001761930979947 -8.085803457420225 2.5192632763408906
3340 2.005258796834091 -2.1670910913848185 4.553048926935895
3088 1.26331804743165 -1.466210956406558 -0.9432998754266814
3082 -1.8081692528050877 7.234294418554286 1.86845269244007
3366 -0.19415997838502097 1.0009193101765548 -3.4482546661385394
3120 0.6771017668552252 -4.339184889127017 -3.5448931353374102
3339 -7.4761367441469195 2.6384050855834835 -1.2489681870067584
3372 -4.253373405416345 3.261389204016166 -0.2786083674162388
3341 -2.144220804067294 -4.710489513336351 3.0019021402723287
2580 -4.841003156088877 -4.084251705691109 -0.3795632191014168
3097 0.7939095786950394 -5.4775290500523655 -1.801316427169397
2835 -4.622678975175196 -6.62029470998013 -2.787273016644264
3092 -0.8919536577627931 -0.09859013786572676 -6.428700350981353
3119 2.9806613963684745 -0.9035617164213682 -2.027450376536547
3123 -1.3535201336172475 -1.8859829694010444 6.215645577415443
3342 0.23406726377759185 3.2939127853570733 -5.420020238950425
3346 -1.2188513901437357 -3.800999087470911 -0.29402678734606197
3377 -6.542811647523486 -2.8775047281435526 7.972049079385968
3091 -1.2836586827222463 8.08203145355639 0.6704854405280093
3318 -8.338247764542496 4.782195857494853 2.6880540586041595
3345 -4.047782826939386 -5.985994142703226 7.421911255564226
3121 -6.373296969193133 -4.199375066727641 -0.9345443472487478
3374 3.1315620348506856 1.2001279684812896 -9.089125512148625
3378 -1.143013336343585 -4.584360461800061 2.143387988817322
3087 3.226098799704427 0.9778253606446026 7.078731861071246
2868 4.3904681297323975 -0.7348788290088786 1.9284095587671164
3094 -0.6966068248805264 -0.9525894592682596 -2.6554214665225375
3158 -2.3242756115540075 -3.6314572636532283 -2.416806738835657
3096 -5.627315986437557 4.917747596205981 -1.47778472170071
3100 -0.01385108691634976 2.671268939118007 -2.323004623700005
3127 -6.376430880555276 1.8656317567395164 4.051403836404735
3128 -2.172530993054411 -4.416506162467434 -3.3619253345754645
3350 5.065256194016246 -4.921873926303322 -4.967897286016545
3381 2.024080978884124 5.052220916760631 -2.7636647773843146
3385 2.619472675476101 1.9582677200416576 0.30436297368546295
3095 7.500474910540031 4.690561315826923 5.792945435459968
2808 -4.7082121072392775 0.018923700594564316 -1.4996333732562916
2840 -2.483051448814301 0.7790162408504121 2.8951878507707294
3132 1.8885727987262046 6.429737504926468 -2.8694019313292483
3382 -4.117492818291305 7.045882069233862 -11.660460722957433
3349 3.0755729792010764 -3.022358120925346 5.243839794389248
3154 0.8448259989964558 2.7562201967168556 -1.8967001113614017
3353 3.5571712688247175 -1.0810815278791366 -1.0555130380511781
2873 -1.469670870016832 -7.3320019495070525 -2.34321594137919
2344 3.166472473407067 3.5544674620440824 4.276709362550258
3106 3.47936939397419 0.7178651934531194 0.5479281544224044
2869 -3.009528758681066 -0.4391547479277808 -3.105575385901477
3131 0.8799644499941299 2.531821041061347 -2.0357443234864503
3104 2.4510925268047985 0.4893551675035555 -2.8272052732596378
3135 2.0072721085430136 -0.09352038731092378 -0.46159034314620556
3354 -1.1838024198673127 1.2620591443424594 4.245036386329434
3358 4.181579689735189 -3.7240482911399693 -5.034522309747797
3389 -12.181202080137705 -1.5459736923826195 -3.824490793210926
3390 6.453154947304216 5.7608689825603765 2.185730013622462
3357 6.7805040957983005 4.761331439418651 -2.4340347173913446
2848 2.6610320358467052 -0.5889317614406391 0.05163193656017713
3099 5.265139686630944 -2.4875919934589663 9.241236450363969
3136 -1.4958845069421118 1.7984926459367687 -3.6543428137797975
3103 -8.747276455876431 3.169704725315858 3.1713486597101768
3362 -0.3866039988939547 -0.8711751922934536 1.5617440860550031
3141 7.306914678656344 -2.9780999345713974 7.942270694248239
2912 -4.011671033022963 -4.0441966919934575 -4.095081866793157
3174 4.382560890476694 -1.7153084853568819 -5.939576539609762
3139 -1.6374909162085802 -6.991487407084168 -2.034576738863983
3144 -2.812013959228626 1.7101592149652511 1.8472140954712104
3171 -6.387293133038031 4.87975682789702 7.479543066331887
3394 4.485316619431058 0.6928165949393025 -3.044508419162744
3397 -4.800406235114045 -5.017540963092524 -4.575724139215662
3429 1.7675518172204905 0.6982557834060568 7.266055145173874
3140 -0.5916618467682894 8.579221564905893 7.202121168531227
3425 -0.7806547169805343 -1.5762910969710768 -10.245817797126369
3393 -8.213617704886115 -2.4706788973520424 -0.8778619271185297
3145 4.6965218479307005 -5.008725078596157 -0.3950638227170187
2895 4.0180656950252915 0.10199712404566366 -1.257145057860073
3370 4.716192922775397 0.5742795582616667 -3.427926617616536
2900 3.0810039388637382 2.8524813565821203 -0.8245778308613569
3175 -5.833415802064406 -6.578068612898854 -13.745606636114012
2860 -1.067336809013915 -0.3229123330524174 -0.318213383105382
2600 3.3500649124862685 1.4837761433330234 -1.4121023944655966
2887 5.040775872481011 -1.2740912031674991 3.1550724802514223
3143 -1.4732601291362932 0.6134894087461046 -7.966145587104156
3398 6.689363600898512 0.30149843005381427 -6.173965601858496
3147 -1.6164849146826497 8.04181656330053 -4.341078059426482
3148 0.2661891623851238 -1.7091489277777892 -1.7138993688458009
3179 5.238077575291286 -0.20837841034590102 3.6926385864544717
3401 2.56000423212186 -3.2971348817111172 8.987598450082114
3402 -3.6843678453775897 -4.212730885584691 1.089670359262549
3433 1.0368557407228827 0.6678873452678549 3.7337956465042064
3405 12.106070611532529 3.53716606905539 1.3715971022759263
3152 -4.451052991772898 -2.6198478243771133 -2.5075801514669562
3437 4.042489210740465 4.043369084659439 5.704928632111854
2993 -0.33309627977593814 -9.078700277905288 2.1714364223839913
2961 9.635878692732206 0.3422779032113915 -3.955847502149133
3124 -1.3549801223792892 1.898560889721303 2.7751287715005697
2929 -0.6103093170562033 3.6252486392068812 -0.6463998535436961
2904 -1.8507123415057023 1.3838521569585245 -5.343041047401689
2921 0.40924293978818 -5.23191353384845 -4.357706817591351
3151 2.988821870651762 -4.364214265335102 0.6705094977524485
3155 1.70846142613596 1.2068064903545284 -1.7310360661029236
3156 6.118975830415562 1.431989277338258 5.3193056164229455
3183 -1.0373161981296295 -0.2928980988294151 -2.0929433307850887
3187 4.09903947071415 -1.4417865702112416 -0.0556699463774142
3406 1.911189385363024 -0.9086629237991223 -4.645904532314621
3409 6.882913638282673 -0.056732608262869175 0.6444346093216643
3410 0.08221805155904115 -1.7415713621101532 6.466172599371546
3441 2.3713834294582985 -4.668003385714012 -0.8093939995507089
2715 -1.6524229874854173 -0.591491136787709 6.7910950233453615
2899 2.835818469253915 6.913719141967612 -2.705938155214133
3190 8.761485824124653 -0.5782799274885012 -0.5197210857668926
2931 -0.18452608809064985 -3.8962210055437554 -0.3534450784274841
3159 4.18058428752393 -4.089764764503389 -7.222042578044282
3160 -2.269999341631621 -8.129969473453219 0.62851548718121
3164 -8.73554021841916 -5.312055310631001 1.98685591764799
3191 1.8767751676901772 6.412915108417558 1.3745129691025775
3413 6.282229831758096 -1.0516837776100696 -2.5576505747875693
3414 4.457749201387589 -4.030377042984927 6.248279528197166
3417 -6.385634040441992 -8.695399217975561 4.629288344324749
3445 2.1801143779556056 -1.5506195224056685 2.8903846952313876
3449 -4.36761961328668 1.5555798547763737 5.706483624168422
3384 -3.1794612839611496 -2.9493004274178785 -4.522437654596331
3416 -0.25451116401853047 -5.734713531108628 1.6110964454180199
3386 -1.0723023461105794 -5.996939372688427 -0.6317449317611145
2881 0.547097538393056 5.700741496298733 1.452295600826384
2688 -5.945311188479212 -4.356015219329351 -4.551130401794837
3130 -0.7100065994682934 -2.8649149312495656 2.865819549888953
2911 -5.1975460840932755 4.30757654018567 -6.086943692160407
3126 1.1436431362766755 4.073275495797342 -2.585855561360165
3163 -2.6739522611931092 -0.8774927953951889 3.2742619840356832
3195 0.5833757634119852 7.402247129556831 7.453178352697522
3167 1.6349571694462453 -0.8969950193217233 2.9163938257577025
3168 0.4924749149172926 -2.078955452212497 11.833528213198267
3199 5.019915230864557 -0.05352852746383634 -6.448824272501377
3418 -0.42070872319782726 9.47663272286038 -0.6582479775695804
3421 -9.328114635724946 3.6981049097081864 -3.134843498628161
3422 -5.191706253475641 -0.17848749762432004 2.1216597202987852
3453 -0.22323573087660012 0.2216129387910479 3.470939729905622
3451 -2.7800613412370887 -1.0256537627847355 2.1131055305903006
2978 -8.287582321267982 1.7840524791678043 -3.35433320007743
2850 11.244026196256524 5.187633045534163 4.4465482772863325
3176 -0.34688783398872336 -7.317187720004211 -0.30127812801670745
3203 -6.716331189107564 9.504748773720909 2.1932422508415024
3208 3.9085263968879898 -2.405292813535704 3.0079231299699587
3426 3.906177511482677 3.375436061128306 -5.551991113830481
3458 5.213166912603292 4.309133151755004 1.6206683870889336
3461 7.325210868830688 -2.202011231010587 4.560622197245286
3204 -2.22437322367739 -5.613875126630974 -2.843087462464587
3172 2.0410402518072535 -3.366521194137276 2.1717618327150685
3457 0.7254678227954224 0.6528671045075163 0.6531837596571037
3462 -5.296190078906377 -2.0735676005565775 6.67464382113412
2927 2.984881027628596 -10.210413255519278 -2.4986989173725855
2704 -5.6163397976323965 -5.153724245790253 2.6986236290759513
2947 -5.712126968870584 -1.5236329023811905 1.2125045213908605
2324 -8.847827033307452 -4.924810219085768 2.19663035798987
2951 3.009991219233664 -3.9223858698001237 -0.20476926391974531
3207 1.878501762622548 -1.8900635145125773 -7.442462023562685
2737 -0.025277813031263488 -4.834465658337569 -2.3758811976797976
2956 -1.5192899851698203 4.820160989055985 -1.4107819669185173
3430 4.846436170429274 -2.600189552451823 4.8533240807570674
3180 6.023289416295155 0.7153051574642016 2.4711530622492703
3211 2.051712574204246 5.244226410835502 -4.712321442902013
3212 -2.8972325295257195 3.456989478283521 -3.271751560668084
3434 0.9079982389796326 -9.48891579632081 0.16524885002475448
3465 -5.666505309968063 6.6539291758327455 1.1262119323803692
3466 -3.0073632711814335 -4.108846935237626 2.5210732970446283
3469 -3.0356392997870256 1.8835432764428737 9.74650731735672
3184 3.4591842226984513 -6.301409108982595 -4.669089752084469
2668 4.246326555526416 0.4401829364049424 1.1589419512522197
3282 -3.1537220406360955 -3.1989142712280985 -4.08868949972425
2519 4.316696291835195 -4.218710623130058 -0.8442576964166338
3216 -3.339425231721392 1.8895142431938525 -6.854237025948603
2958 5.740326672421669 2.1498918369407014 5.816427189289156
2992 0.43757300923621445 -7.054734419046388 -6.845876939654507
3188 2.644434333461227 -0.8026839954877415 2.4610860592752806
3215 2.7564005189136926 3.4695207113461897 1.6957603778561645
3219 -4.5727923424143 1.3521012080033765 -5.268249265294525
3220 1.8741037399579301 1.5095506456373706 1.437096757155938
3438 -0.874583663802658 3.933877501249538 -6.527560503411345
3442 -1.1705032155010575 1.4992292186943972 -3.822707051584079
3470 0.10468063189238426 -11.418292050416518 0.974177356534182
3473 -11.535080534950819 5.355704065788763 -4.50913532153691
3474 -1.1614722151201498 3.1719327847948664 0.1582918043696164
2935 -1.5750500353174102 -0.7880144989517625 6.0598664763573575
2651 -1.4912534143217493 3.5216636746149796 4.26511029377714
2648 -1.9033490853764925 -1.0391819991001707 3.737756018924443
2972 -2.797814788727099 2.570633236905208 -3.010808943431206
3192 -3.928178221313565 4.210143509031995 -5.597812378287288
3196 3.4301619715615064 -4.6359760855998235 -2.519449172056495
3223 -4.7674965913824305 6.1625492742146015 -2.7589395361408093
3224 4.285685372964307 1.003005310243545 -0.27045848666546485
3228 2.4073993766256656 -2.618147424639841 -5.051567637858993
3446 -0.14462041599277586 -2.717435288126204 6.748884436307885
3477 -0.21421440090833002 -1.3518055511003284 5.309643666602859
3478 3.2406759970565817 -1.4633439362929173 0.18079364792141378
3481 2.029812930154031 -1.2045741091998217 -1.0151592092449353
3479 0.517362906100215 3.0793521064298357 1.9708396865705562
3225 4.066773032615748 -4.952510403914386 -2.4950548037147753
3229 6.097640351086538 5.253667084409289 6.192550428264935
3222 -3.43530815750254 -1.9529351203781458 2.5974678425799413
2372 1.577123445683798 -6.898625034014097 -6.145287429813013
2144 4.9534571302493005 -3.1070001195053436 -2.8868150859001083
3450 -3.780190585374921 -4.8334988858650165 -1.528016051348334
3482 -4.448685680965484 -7.014070194024636 2.924949536989644
3200 -5.682416111410112 -1.7014055968194182 10.449394767995312
3227 -0.3982502485873799 8.980381392011404 6.348183917910703
3231 -0.22083725110990648 -1.037548244856203 4.492102480852058
3232 4.0824137573064 -4.565142787709464 -1.8417498963373875
3454 3.3794957162994574 -4.2832740053951746 1.751596577587746
3485 -2.451532060417668 4.1014559669106605 0.7058086644983809
3486 -1.5550578144579763 3.6886968686531927 3.7324379730755033
3202 2.71495307870387 9.030121584107135 -0.8968440166970706
3017 6.679552747744052 7.150531376995844 -4.169608805073412
2913 3.1303386223800977 -5.169921778192632 -2.3981618917245795
2694 8.195012440753127 -1.6517470178543834 2.19146975265617
3012 6.606207385249963 0.3099082566375195 0.9181089829952717
3493 1.3206966978549184 -2.8517409395789843 0.15038284882900582
3235 -0.2797873152249284 0.8932661917419162 2.339601396083196
3240 6.6660189237390455 -4.391842677225059 -4.8146646630018175
3267 2.8138867784180253 -2.1667407635195746 10.554630913148754
3490 -0.5935293088290697 5.072301458263138 1.2476812455307276
3525 3.497298411634409 1.3981683635340336 -7.3266997818688
3521 -5.194927519941005 -0.5129615010274352 -5.952194822533772
3489 7.867238625497752 2.214655917537711 0.3179519994187321
3236 -5.793316537490712 -1.9786580547447425 -4.1375492407865515
3492 -3.0323993558841456 -1.898548409255296 2.9060690185258475
2957 0.7146176702385643 0.33161232282700953 -3.378280094663356
3245 -2.643443241389204 -2.8383666216149797 5.182798111266889
3271 5.116056850178886 3.4577009090895414 4.62245802415124
3270 0.4122767033590055 3.7154433777322216 -2.7658760707453838
3494 1.5833404166360732 2.3337337208841458 3.7842823110745076
3239 -4.317991636016262 7.905963490998542 2.0222311491059526
3497 -0.03380218682030259 -3.009282662658494 2.0019122562769236
2989 -4.285319677326498 -2.257453047571834 -0.4777013506161825
3243 -4.7371991834738445 2.203251547716822 -5.08069465960839
3244 -1.2530778695062135 0.9273314092157362 -1.5000399524830967
3275 -3.9873919399801596 2.1236575201036314 2.3814843928461626
3498 -0.14299637060465553 1.4730045144093282 10.460528455892154
3529 0.7565158570974331 4.905323143218861 8.16869771360501
3248 0.5424012240845536 4.282991314901608 5.940108657784024
2477 1.6025649195348823 0.9041438828733783 -4.424426826574356
3242 1.4075621382485113 6.391992684481397 -7.288940358735971
3501 2.2814576513634957 2.0285739744854614 0.6086854405684932
2512 2.763828708047127 0.9433922806645443 -2.239971687410523
3533 -0.3237699258357494 -1.5556404793560201 -1.786054797389552
3286 -11.098689988445168 0.5384309575468869 9.544202693065152
3247 -0.43360788290739716 -0.9354392893638275 0.2829817283996589
3056 -9.94378753183623 -2.9404488874368955 5.0355760112011625
2997 0.9993661685498842 -1.2193311061212064 -3.704573095925123
3252 -4.414070744155003 -2.753568806012555 0.7662453741508966
3279 -3.270688384905567 3.42465243568023 2.7991096090008605
3283 -4.216343850033383 1.3716693099671382 3.769873693730144
3502 -3.113198668334912 0.3521631570302379 1.728276973532106
3505 -5.620390560074104 -0.8859714787415225 12.246998970340114
3506 -2.677635618926816 6.5007014675756105 -3.846842071736584
3537 -7.763087453844495 0.7650541386051624 1.4764021878863405
3251 2.1527729903114263 -2.987672333264555 1.0453330973922517
3539 2.0217352141453495 -0.769049403263753 -3.9208895208813686
2968 -9.780640595302561 2.841443839507729 -4.107365617093968
3003 1.4982017435883956 0.2554799684358383 8.020037935607192
3289 3.520701232263388 3.5838261908880016 3.3330286927199984
3028 0.37082243673014087 3.0871736983520055 0.40551134640812775
3057 -3.7017957481479717 -5.307222118283597 1.4525825557081857
3255 3.6088462978097566 -1.5416185991253026 4.336402162038351
3256 5.012327506587277 -0.28189717066513903 -0.8697574104122019
3260 -2.664542408316431 -6.486691392738611 -0.652406728701555
3287 -0.4993922348888014 -0.5207171128761114 -1.6938485292535206
3509 -1.4959834367872091 -0.024264625936804632 -3.1828952578097494
3510 -2.8840887271714677 4.9925346779062565 1.2971675668615172
3513 3.4218068698717614 -1.9573238592758357 0.7183151616561312
3541 -1.9207973750189062 -5.127166376873019 3.580599708573988
3545 -6.502334631985018 2.1141350689971214 6.060505515884187
3512 6.391493999949647 -2.589557012854563 3.3958016316420507
2877 3.5874705186837206 -5.11254474613089 3.805079976859608
3007 3.3988134136141697 4.81559854175719 2.4894944379823443
3262 -1.266914841111452 3.021522021241364 -9.674974614672717
3293 -6.377871330377319 -1.2332632454058043 -4.79172606377105
3517 2.3270367064561825 -1.4174126982707995 0.23883596583221703
3259 -0.19762296146822472 -2.4397658649585967 -6.880478982182712
3263 -2.4119593344957275 -0.1415216977630621 -2.017681075985618
3264 -5.205322291153118 2.229386645894758 4.466759378812914
3291 1.8576872245962432 -3.616801024969808 0.5634894102419967
3295 0.2824509617763222 -2.6751043157158927 -3.995487016000963
3514 -2.552130686140876 -1.3840279581301762 3.1159740177424946
3518 0.5144606356966271 -1.8713117512183957 -2.9697221378841
3549 2.786452024951547 -2.9204387936189256 1.3925234758590221
3016 5.324447576020695 5.15546497395996 3.8121942723111863
3047 -0.6051579249635317 -1.4013684077416473 4.051935917667951
3268 6.475179171595216 1.3584598188678665 4.010617350557441
3272 -0.5025920954001 2.686080325221726 -2.3634194870907206
3522 -0.25132892357115344 1.442933960465502 -5.323682813866134
3063 0.25902531000387585 6.2726041094351705 -8.536048958254407
3299 0.1946303354121595 1.4039208031457795 -2.5409139047389377
3304 4.996768735002009 -2.7479118817774837 -1.0804746104392797
3554 1.6447802667690763 1.280991698316809 -12.245245039056371
3557 5.840598930152302 3.8505690905058994 5.533790792453781
3553 5.161426125810688 3.2615001547507187 -0.924088614312121
3300 -7.271097827505223 2.5333476340594983 -3.8458863496691142
2763 0.789034660803742 1.539415235554748 -4.73110407273837
3050 -4.804813880847962 0.5514519528182594 -5.520379408513667
3558 -0.6156989796021622 -0.7110808002681849 1.153716070988596
3274 3.6590564441443463 -8.618090565111356 1.6686835897965653
2986 11.073556294301113 -7.455676495082714 1.6217354862049558
3303 -1.4261326879147107 3.8664961851946624 -4.046550754716564
3526 7.612287974425118 -0.38372575373772083 4.646832719937102
3530 1.3898366788209289 4.311950151654884 -5.023510051915686
3052 6.0784334482675915 -2.04620922591153 -7.5392433513905255
3276 -1.3453679504249656 -2.0276359252649465 2.1083140001664287
3053 0.7381181164099215 2.6832978495096618 1.1341255501094853
3307 -1.3607883140306467 -1.3510692213724527 -0.10652034671189572
3308 -3.204836169800723 -4.196833324141399 1.3958336541454917
3561 2.6576981677199614 -2.0655598105200377 4.300261602951727
3562 -1.8121246401662987 -5.756429835219195 -1.1246701475642444
3565 3.1162464148048223 -6.177024699982755 2.696214664949886
3312 2.7031994734812415 1.265487703754997 -4.084311740597161
3280 4.17848263280766 -4.9233237822439735 -1.0815785577734796
2806 3.005750663138729 -4.4933363280004555 8.813700124247607
3068 2.7632176931224834 1.7055693419002111 8.398304205201594
3090 1.1151107058641916 -4.930621000256427 1.8714612018599428
3538 9.9356431972956 1.593255807560817 4.315838542531832
3534 -4.177450744910905 1.156048313387429 -4.414148445958807
3114 4.863862493272808 -0.23850534004995896 0.8991424984298173
3284 4.161363559342821 10.008729688731032 -4.636591256308531
3311 -0.55348532583625 1.9941692354728149 1.7306052375258065
3315 1.8222585989935494 4.635826837080612 -2.778312112115178
3316 1.3670120339460639 3.76518925430317 -1.6630850333755405
3566 -1.6607444973787722 6.995760241721191 0.3984364851214215
3569 3.3693312565709013 1.274926418185543 -2.56118843678009
3570 -0.6095631957143874 -0.16551805882695042 -1.5336875595780883
2829 7.3624813584278925 2.0223225114137096 4.310195436184461
3062 8.208460685959025 3.989778336583812 2.211703127322659
3290 3.5785145839234773 -8.500871165981073 3.5759173055290714
3542 6.063910439789312 3.535027855576346 0.44307564758017703
3292 -4.950996082930654 4.794035552726484 -8.438108474057742
3288 1.272460455077629 -1.0718218349969615 -0.8785396253795975
3313 1.977489599801647 0.5802936337032533 4.4725569528750935
3319 2.8037023261103715 1.7365699355494564 0.017160570603032395
3320 1.380231578866999 5.362295701227812 1.1420951773769332
3324 6.530531634705246 -3.7047480135621518 -3.9830505202663806
3573 -2.3754633647840744 4.187162915271172 0.4163083935530718
3574 -8.207793360562654 0.9920826582162865 -2.156259867903194
3577 -2.7178204058075726 2.312837339527526 -0.8240913587323476
3226 4.739170020414582 -2.8164651932331517 -0.9815092897744325
2843 2.763761311530423 4.57552533556132 -8.122405524349965
3322 -0.6972100794580252 -2.7055627436944283 1.0807596640469588
3065 1.2277291443349323 2.0035595863752893 -2.9133355761186133
3325 7.009952894099701 -7.059704198819386 -9.334557473694197
3296 -0.9452653186619971 -3.6031436313265437 5.510322817299733
3546 -4.48005839752446 3.81127649329913 -1.7043752725827315
3550 2.0724140664281734 3.400053202520693 3.0846930523420872
3323 5.203390888997152 4.662836038162522 3.5701444224192826
3327 -4.2412106555834015 -4.950245306198291 8.873271376574296
3328 -7.545815013574209 0.44107966612227617 4.466869988301664
3578 0.5163916460781978 -6.09128069119664 -2.8672964937361116
3581 0.12463942719055278 0.13732258971184852 3.1137457082014253
3582 -6.51911926530687 -1.1837430020869855 -3.4859750455321055
3583 1.2463171405899 -4.667105094942257 -0.8408833078638813
3363 -5.183745372919444 -1.8076564749079704 3.5884966764379245
3332 -1.5204670398013873 0.3863046534631948 3.3825768925619752
3586 -6.85750461663305 -6.684001805599965 6.237306975610476
3592 -0.07439119007836453 -1.1373177722590488 4.095266545158151
3619 -5.759184979650195 11.778330740029453 -2.818653669477707
3621 -6.332825075807775 -0.37601282108121464 0.15487774842543733
3617 7.8755007860918855 -8.55266856830084 -3.55896936061807
3588 8.318142878026409 -5.008225751189356 -1.275510587929729
3620 -12.649482299286124 -0.8519806045674865 5.621048493536148
3589 0.24516302099922663 -5.997341922313007 2.1613944715697304
3624 0.2243106576955887 -0.09245598871608593 0.31697156130812065
3587 3.6469045736823773 -0.1902384725021909 0.8820319732550479
3331 -2.5465996436088956 -1.2813723256613803 0.10075879146645791
3618 0.027565491627657812 1.887974973543882 -0.08639659648211157
3622 -8.922628501814549 -2.432445031385238 6.810836134892216
3585 -0.4378202870614927 4.629455863011649 4.083692434969364
3367 -3.3393347963649496 -1.7441337632868394 -0.6863038387547441
3335 -2.65951105474742 -6.180853282609357 -5.518714597085403
3623 -5.741241094848486 4.236815033453862 -1.7703966097648758
3371 0.40464735577637767 2.287604301335312 1.0416196631898604
3590 -1.842040636797866 -5.1168190033447365 -3.6482383061746857
3594 0.11980070945447718 6.723636052685767 1.7196239399891873
3596 0.7521222533420201 2.6835286779493233 1.0878172721527206
3625 -4.520443477901594 -1.1924866455916232 0.0670997219074754
3627 -7.58445987448726 6.054569532830116 -0.34028321285620894
3628 2.236246851014221 -1.8341741572318695 3.2267867606402603
3593 0.5746532110504502 -0.9624577651634879 -1.651448311066469
3629 3.1852084666110643 1.9287073395554835 -2.3326720613135903
3344 -1.405056796459506 7.3629466134178205 1.1536977116936853
3600 8.185430164905112 2.4882558100773067 8.962094901924647
3626 8.139178278032338 10.044914567544458 -2.9323028861891287
3595 -0.7387480727822305 -2.2224931697118078 3.2646184837598726
3591 -1.3032390764633803 -0.4761888964308652 6.1884687648592855
3376 -4.18886414795178 -3.816480768355633 2.666159881517326
3597 0.13410398651976302 6.671831513556549 -1.0137557530225576
3347 -1.753072548862645 -9.03087612010864 6.651318926841717
3380 -0.07615350273755038 -0.7083527671883683 0.2047475178849456
3343 1.5969816637077685 -4.276002766090233 0.4960392483793066
3379 3.880128005990949 -2.194720941645166 -3.1146491804267633
3348 -1.5820121643722271 -1.1655879561325915 0.9932201439909367
3375 0.11496713478358192 -3.0681549730231303 2.468750513272216
3598 5.005317074235003 -6.403245775128218 -0.8685957055270719
3604 -1.7487714954843414 1.078864603645181 -2.610580493095931
3631 -0.26030142060833394 -7.523868356707597 -0.7153528371536909
3633 -0.006309697485002118 0.5719179227271916 -0.4986323932504188
3635 6.989378156671045 -2.7306418471192675 8.03134825739205
3602 -5.038449188589418 0.1930300314847788 -1.0209357259673084
3601 -2.8000042266263563 -1.7166777748628632 3.255360400318327
3603 -4.986169767816704 -4.440964928990395 -0.9367372134153851
3599 3.8971361816027192 -0.5808016204726724 3.949990339259672
3636 9.504951330314054 0.7583234884713936 8.58475273502353
3630 2.2259888036403566 -3.580243308395182 -2.7646604506705197
3890 -1.6234606859837313 3.4758654364014605 -1.4279126119976941
3352 -4.307556553329302 -3.1571367939768984 -4.107297238229542
3383 -6.8182660563112325 2.35018237122604 1.226623001215544
3388 9.84194265102355 1.5384133084307234 -4.654118821123854
3356 -3.8202846827062946 -6.292418693535401 -3.18303466256152
3606 1.708602128304099 -2.1943311373718366 -7.211494353214
3608 0.5111451153787889 2.102431858851745 -3.0799671478021784
3612 -0.4366287532331563 2.103651753056012 -1.7327258635955032
3637 3.3331973433908813 3.817958813793242 -1.0551260683363994
3638 -1.898659270497756 -1.3223492742739587 -4.157251933866735
3639 4.7568694924750705 3.0036051454803796 -1.8620346993088555
3641 -3.7328489363636383 -1.097719623597323 3.565028911684761
3644 6.408073128349362 0.7343156136518988 4.429594138024682
3351 0.526547722507806 -3.0101623605416155 -2.8720262538682104
3640 -4.190910256196895 2.2766063379863666 0.8417473107503455
3605 1.6874884595982664 6.90353525697942 -5.793811794783542
3359 4.712739819810187 -2.1916487621507383 2.8539884610358253
3391 0.9331738951800816 0.10171904736559713 -4.1919058373839695
3387 1.9132283087200372 4.847815829022009 -0.17405611686355554
3360 -0.7226921046753744 3.214640820416971 -0.6410881164140785
3610 -1.4864433428777373 -6.848238277978656 -9.368478253630496
3614 -2.928685030449298 -0.040881169243374774 -3.48044263869684
3616 7.261612247165563 0.902568750362101 -0.8349396140110655
3643 -1.1906723494831337 -12.631869781019073 -7.520313034376021
3645 5.680293597397693 -2.629623142304519 -1.6236836835053567
3647 -0.6766658876076564 1.9916398098291377 -4.438667184529727
3648 -8.754927785927153 0.35710211921493556 -7.002137103957605
3355 2.253050281504995 -0.8612635582108112 -2.885672926056338
3613 3.8782738976583535 -0.7189249509934779 -1.705943360088864
3392 -2.829469922138862 1.4774451606769492 6.40652277543454
3646 -2.1498461454675732 -2.0674590990528383 -2.319083786336245
3902 -3.1210329042510847 -1.0408534840583372 4.885175293798535
3642 -4.750673929603422 -3.905390731933519 -1.4322238561364342
3615 -2.1617838517774985 1.7977469406822781 -4.342800852233679
3898 -2.2634262485605245 8.544594542086093 -1.6302815106114923
3400 -8.412678856304025 8.654019192269702 0.5018680601420705
3427 7.8014055276173435 -1.4280314324068057 -1.4195005136140098
3395 -7.140728506717943 -4.835851669091575 6.360697612015995
3396 0.5209308080143202 8.591040721970927 6.335135131264228
3650 -5.588338922278303 -0.840340584751074 0.16220140169292524
3651 -1.2077421917452915 -1.302278907818856 6.148093853894468
3653 -2.9007241342212735 -0.6521038865841483 2.411594846543502
3656 -2.009596532342708 9.619244583264082 0.5324645645907926
3683 -3.4351354521582715 1.1583126656940608 1.0416783468235695
3685 -0.13583133582658086 1.6916692395206305 8.55211894713642
3681 4.037509833157564 -0.6142588999615907 -3.236048614752186
3652 -1.4836563132294223 -2.5778278315565037 1.6633698295224364
3649 -1.7533232539142383 -0.7472958066521412 0.9684489830215133
3905 -3.4208288577821504 6.331859489427955 2.4147377423525542
3431 -0.41030571030182833 2.5051303788690813 -0.3646190747273428
3654 1.8284017583359766 -4.253848346462041 4.651812942618178
3937 -1.9282784185704718 -3.6590085463692446 7.078999518034558
3399 1.6484974710416354 -2.912341869264911 -8.71029765064708
3632 6.409091798004386 -6.206389184070975 1.9906919560914362
3655 -2.769281486770836 -2.5074829774534573 -1.8529826547192143
3403 6.874820869789517 3.0459088064282134 10.959047575483925
3404 -3.9004740490499894 -0.995259903592451 -4.667137287807106
3435 -1.1073968698034107 4.728815487767712 1.563785368466799
3687 7.991379103361056 -0.3746187036938705 0.31233570471949995
3657 -4.633883039356113 2.2726844170331173 -3.309358873335139
3658 5.371232190494209 -2.728435816071785 2.025773553590683
3659 5.917603167814671 -5.088567936021416 -4.944297586012243
3660 0.06720022627806842 -1.7072796566215582 5.547841071255129
3689 1.0600987147120766 10.40985681140249 5.257751278201094
3691 4.686667405874436 3.0402809147161145 3.1416740671292733
3664 1.6300575968801145 -0.22573384651748324 -3.082103988399043
3661 0.9825646759798157 -2.552566067719314 2.3574204386485396
3408 -1.7029235722287968 1.847311931864221 3.0202870179877452
3693 -2.4451945945966465 -5.038166552497055 -1.4204686193469338
3917 -4.137595353912684 1.2417285537063165 5.105236285903961
3634 -5.993092476846055 -5.16908056483647 -9.402243463752027
3443 -3.004861366909687 1.032441105440684 4.72162901290746
3439 2.8759564011374072 -9.772273345093957 -2.5618979446142123
3407 -3.8924512774481137 0.4841859994004802 0.9863757106562575
3412 -7.209260506082273 2.8674706103544447 5.975243591382037
3662 -4.054045020837187 -8.955451955966264 -6.437713211349695
3663 -0.1621048424259389 0.3823655065383852 0.8567867319153353
3665 -1.392628277078086 -3.1013374643070377 -1.2022937170701518
3666 -1.797128187749619 2.381891632696768 -1.7258949725683221
3667 -5.694677626825624 -4.667978610275138 -1.611721784125957
3668 -1.1049258153424903 9.238585224466767 -12.029300868914701
3695 0.27565113931571417 3.394933837229053 3.902402595054811
3697 1.0364819797288116 2.270445865343013 5.85653864179092
3699 -1.623477023524945 -1.791011658266262 -0.8306548612142192
3411 -3.56084775321173 6.763143590414853 -2.375682952430318
3953 -5.480646301692385 -0.29788627509581905 -1.1626196232071977
3922 -3.6218916067291573 8.964966337112054 -6.641599695292215
3420 0.9431392371068965 1.9614698305643807 -0.11291267621082982
3415 -2.064729653548606 7.354999147309264 -1.2498059909432964
3447 0.314505261197907 0.7117872925371351 -3.612315282316967
3669 -0.17609288321702282 -4.45372181779778 -5.462451852242297
3670 -8.22955265745284 -0.8827274830942482 3.6420947847601637
3671 4.934085159278752 -3.5316077257728793 0.9635187982281312
3672 -0.059199418168625555 -6.500997916480799 -1.4855077231320657
3673 -3.817280656701344 -6.116812929883355 -6.105962427987619
3676 3.159119257919513 6.927596736085622 11.297366028211544
3701 4.200523389018969 -4.3224222488485875 13.38796059451447
3705 5.223459017611589 1.010918649839649 -3.754193631914369
3703 -6.015662696416925 -7.275692736683759 -3.0489011309041163
3929 -0.8072261401479287 0.1347370105238261 -6.712026743149731
3926 -6.9291331745993165 6.187696510946492 2.7204463838584023
3419 2.4059145270138895 4.869717928549518 -3.486938386920658
3424 -0.41454619135584886 -7.7085115026275774 -0.03173257589033394
3423 -2.0909634816147133 -2.96754398277778 3.7524068174566865
3455 -2.6973184691839913 2.2389030932580267 -2.8947918810147777
3674 2.2287646616555583 3.145865122489043 -0.19185246578330598
3675 7.225017215238467 -2.0634044801150875 0.4104124562649192
3677 -2.5476335063458455 3.53710988654983 1.327390490705443
3678 9.838132018383003 6.56104507860349 4.275018475290227
3679 0.6203354408490234 2.8010851814548596 -11.135319912412752
3680 0.32011277380841435 4.430364016707356 -3.471372751454201
3707 -0.7003512881571371 1.9319129740209902 -3.0006692290016175
3709 2.8378790432154424 1.4795623421656072 3.927337883706341
3711 0.3909941289219447 -2.3741665461503016 -6.1021654406642325
3934 2.2379001656239943 -4.974760007608164 4.499332306653451
3930 7.711571356878513 6.524212476871132 2.687639117123452
3464 -2.8870674976032054 -4.603083460186049 5.756246808811721
3432 -2.543941751766519 -3.8769797962142016 -5.849904161509016
3428 -2.3109632417039476 5.17531049395213 6.222039418294402
3460 -0.561796063034545 8.118163832972865 2.5408043344112343
3459 -3.499515877940496 -3.364004992183305 3.5099671328360893
3682 -2.8137122417173868 0.9823234095874837 1.1812412947154702
3688 0.48791740647359527 3.2859966706846335 0.0356143089105795
3714 -6.284421631874003 1.694615769438073 1.5568869700398973
3715 -6.087226692176352 -5.728559383057424 1.3626248376334502
3717 -0.5762935742804374 1.375066658789024 -4.453595292134956
3720 4.30368581853372 -8.721182969011013 -2.5524050575014514
3716 -6.776340339256577 -1.5010477620101836 -0.32858206978276905
3684 -5.050988275768645 2.242183527013612 -7.2342447017422495
3713 -5.5939063616936515 0.4577197502012091 -4.799911284398778
3969 1.2926797282173608 -1.2086130608600643 1.298652714224134
3970 5.212881018133983 -2.470782393530605 4.669664621150579
3436 -1.5895132276230488 3.6307653169621785 -0.3879618011613283
3463 -0.5866983292867879 2.914647157088051 -0.7144875589083863
3719 3.8306921633552227 4.478476837097287 1.6332789616182533
3686 -3.162834663728787 -3.402672186410934 -7.318360510526427
3468 2.86675201316379 -1.0883013401984811 -5.4752431786602065
3467 2.7344800775349056 10.16134482767311 -0.59268011461702
3718 2.393941217443966 -1.0190940919593503 0.08842642558359157
3690 0.543396548217559 0.5276236165980296 1.7132912718601947
3692 0.3009235732071111 -1.996174529696325 -0.9149777199390848
3721 -6.818871109653115 -8.4220020061027 -5.009576405940206
3722 3.97493322465697 -6.5695526528847585 -8.079165320660998
3723 -0.6091550446917955 6.253807103043634 -1.1500630279543709
3724 5.659539197535833 7.539404115949855 3.9332617675330734
3725 0.3421423893146699 1.847099207658297 -2.646747509273336
3472 -0.8346078055544681 -2.482196666487708 -3.0380594941487455
3728 5.8136485237119695 7.0056070790277225 1.7232302780515711
3981 9.207464113395528 -0.25953175755506047 1.0436918234408243
3696 1.4845464405260025 -1.7730386729392964 -2.333426447641887
3974 0.04644196394470264 1.3535976402152359 -0.5891356122200803
3942 -5.77805618125989 5.991030548805622 -2.4751430778212793
3440 1.4270868054662995 -2.583788339197173 -0.3308958355938022
3475 -3.7955977962527023 5.029733751341338 -3.1011204028310235
3476 -3.3170114363437575 3.017675797796407 -2.69762802550524
3471 1.4227673053443888 7.256902947882767 2.514112949287634
3444 -9.496345302512529 -5.040684917984067 2.8934306231626956
3694 -0.4000839873153288 -1.1833737517961904 -3.3950116148278218
3698 0.12267669960274977 -8.508318644134482 -0.7704222878501907
3700 2.589803367903896 -3.249737084698037 -2.8584979354569153
3726 10.350199095320672 -2.6895787071620854 -0.18338879647383288
3727 7.024196734627007 -1.0884307924263912 -1.4778291270524335
3729 4.2744165539105134 -0.12107846158589142 -1.096814166086399
3731 -1.4455631265524411 1.5164609523574697 5.768048191399934
3732 -1.5240082312116638 -3.99571188444799 4.690606126700443
3730 -3.4716071988128 2.1534986500462403 -4.060675632574942
3950 -5.53261476713262 -2.937659719753244 -3.895738551913565
3986 -5.8397061315881675 0.18691619774582116 3.5806549961095593
3452 3.867497868505806 1.9917875527034732 0.205094002013258
3448 -1.140163228165589 1.652083998936635 3.330013338455791
3484 7.361392430413729 1.0336028438873728 3.123115328816204
3480 -2.692598663841123 -1.1507225866004607 -1.3611971143167436
3702 -3.1004023581826328 0.718641252016508 2.662933351423406
3704 0.241584471189595 4.169602619918672 0.5141286254488102
3708 -0.04023203278964847 -7.2613929870550775 10.68437241819975
3733 1.6626667559909882 2.2434284593010654 2.243640366737237
3734 1.7977521793937352 0.3941391185733062 9.62457526042001
3735 0.5776372683561125 1.7470543739859699 -4.380144056354983
3736 1.1631274608949975 -1.7566883338915908 1.0350294436708605
3737 -3.754288604656863 -1.375578342060857 -3.000617419750162
3740 -4.90143635124503 -6.622449723526437 -5.714459286481996
3989 -2.0394436398141593 4.11638758469619 -6.57200090155908
3456 -6.145828575128435 5.6629891931019785 0.6612803604467563
3487 -2.882304995390967 -3.60132080397292 -3.314770221733832
3488 -3.368855241018541 -5.615412333321562 -3.8652396120244967
3483 1.2641513576134018 -4.537362370121908 2.229588938363316
3706 3.058899076626184 4.5552000206825545 1.1551593687308397
3710 -1.0892635970474829 -3.421623914384383 -2.3328285746072632
3712 10.888525024375372 3.972270342313192 3.362564006062972
3738 6.852910726054257 -1.4539090587954338 -3.0032018206692235
3739 -1.1610859563906872 3.714217010470723 -2.2481101883662986
3741 2.459629879940955 4.709984690456536 -2.899219215357242
3742 3.57576613865844 -4.457120837764369 5.6838887014225925
3743 -5.86778275322442 -9.398403377762182 4.716196780654284
3744 -1.880809966077251 -3.7457468893487955 -9.12315978296082
3997 5.532659618217254 0.7302043066325187 6.164433850561081
3966 -0.11062655589840296 5.414435872304247 -4.348001470653031
3496 -0.9362963045510405 6.21057523642902 -0.7810318680177246
3491 -0.3062401496722935 6.181191251661878 0.45699165790509744
3523 -3.2412492632007366 -0.41468893699388876 0.2901711921555873
3746 -2.7042757536087056 -8.049031288634929 -1.4491693767330676
3747 -2.1010630679299735 0.2780736854339282 0.8023780484297794
3749 4.0284391960138315 -2.8852292159936743 -6.720183865313755
3752 -3.135352677950951 2.095155774495084 -6.8304855143134064
3779 -2.1651323734277823 -3.9535168187354794 3.9401982504674278
3781 -0.410650279063326 6.546528865709543 -2.561602477392966
3748 0.8177729648456722 3.4033715638494586 7.346526431783658
3777 -3.299343025493842 -5.457376939138687 4.0077106127191495
3745 -1.8040317397356826 0.32990004713316884 7.632322362050365
4005 5.035892688827297 4.0329716527267205 6.038239311452138
4033 -6.0779722820443 -3.029808944646855 0.14973810717783848
3531 -8.926165753055617 1.7853806892514685 6.074379015956965
3495 1.7815589197490815 -4.878036910245841 -0.9665017548640294
3527 -2.2303565516893062 0.22395786629447956 3.0848741412268006
3751 -3.8837250373364265 5.733635559516491 -0.8871741082264213
3783 2.469561131454012 1.1098989159766826 0.2477675803974704
3500 -0.3997883708122933 -2.0685593178580732 14.97244242571654
3499 -2.6121214014692424 2.2976965723463616 -1.6107902624254975
3750 -6.671981772417514 3.6086889935974646 5.974482932984008
3753 5.181765427394582 -4.605247190993467 -12.71819175752767
3754 3.1121467461232237 5.18821305711157 -0.16865649658266382
3755 2.418604724115884 -0.25010912916737044 -3.231022000627495
3756 12.62265742506557 3.6067769753645718 -2.947643349437634
3785 -3.527454251708774 1.2379179774674898 3.3929434307547597
3787 2.4948736748382556 0.923312283029473 6.2420590540213015
3757 4.516548670040823 5.552702935465561 1.8031445964809556
3504 5.793038512280818 3.9409652489414255 -2.4377227492099784
3760 -0.06968918799290687 -0.6098526137012766 -0.20811869940579153
3789 1.5909920050778101 -7.7170094642956055 1.5327114085538205
3535 -3.510882217201792 -8.656238524462506 1.4148407065539723
3503 1.7354948048183563 -2.0394265045822944 6.210929806137085
3507 2.692170289115703 3.125229580838767 3.1247428963957953
3508 -2.6829269853516378 3.227290239961961 -0.4047762574721394
3758 -3.450139621397957 -0.3425906609285216 14.564079804787669
3759 -3.5643073235330522 -3.0810336466126733 3.2015031498358044
3761 -8.081992832850734 1.2276942520128942 9.68374989583997
3763 5.060231269629094 -7.853055622645645 0.7958125624975635
3764 9.470166181573921 -8.317500239383074 5.126359644356404
3791 -3.6724298198644085 5.95942841631821 -1.134628230622035
3793 -0.29732817585719684 -6.945761147426068 4.928991885557308
3795 -7.008294874875777 3.422471382100844 7.085104245127794
3762 -4.798030009044924 2.7679573576650576 -1.0841596010190289
3516 2.227164549748178 2.1148159213014517 -3.0335102632643123
3511 2.7426885306255557 0.6550685746487911 -0.04268047016145448
3543 -7.974318617531195 5.040849896127658 7.032248098039233
3765 -2.0193981879096197 -3.4014234047920118 4.029274983747738
3766 -1.5434886037858577 -3.8252065921628433 1.0983397525596543
3767 -3.9198091452648836 6.6537409056911505 8.169502461327223
3768 2.2686006612596374 0.19822852538234695 -3.9120311852003318
3769 -5.113970732145123 1.9079355207653568 5.322453489502619
3772 6.740260168780236 0.7427748111344363 -1.2371875352082238
3797 2.1319889637430003 -2.9146393277144416 -1.7306495288544161
3799 -1.9137795786485419 -5.105586535868381 -6.107218131621043
3801 0.05582637922779532 0.35861765358101894 5.966958808822705
3520 -4.62218137185891 -4.103407193022532 2.141544438262778
3547 0.05401061896467963 -0.454701127996267 3.3559451571925942
3515 1.5753241376586111 8.350504110952036 3.8104741904375428
3519 -3.9835149359652333 -5.282274971233839 -7.481194545272885
3551 9.861419301724125 -5.704984562936154 0.7910353287724955
3775 3.6890905386099853 -0.6881418491918915 -3.8688371578259804
3771 8.501686326245979 2.030058668582596 0.3642415319124782
3770 -1.8292616691792878 1.1371272699338886 -3.5614319884233425
3773 -4.492606007293164 3.5848025222677933 -0.10062528463321109
3774 -0.42713820950617554 2.5382201269936906 -5.232257072329195
3776 1.308680422347336 3.1257566829202803 -3.5536143741600936
3803 2.326468909331785 -5.66826862535149 2.07543962213326
3805 0.22767769507985453 -7.708631832807881 -0.9813543754531585
3807 -0.39600304024439864 3.2491061630058335 2.7863746010529122
4061 2.9317315270762623 -4.296116993873842 -1.263985227326187
3555 -4.1763893771984835 0.22119092655871714 3.3383900621740037
3528 6.544117430274539 9.830339526127796 5.9693404531601875
3524 3.212786729982618 -4.370914718340558 5.250774964909363
3560 5.728960883490613 -4.1441329785033085 -5.125036544944135
3780 -2.713560544249242 -1.32393047659749 -2.2236967179682607
3778 4.957860957242032 -0.9655254144977516 3.781702309324517
3784 4.36672065680812 4.779249405980306 -3.354769029074266
3556 -0.41977147772277645 -2.4802089915221726 -7.232098214764008
3810 -2.3903370888387556 -0.9055076263927173 -2.5332594553310774
3811 -6.380241648375638 -4.495793457074472 0.7241170457975458
3813 1.0146098271918012 1.8099489295427702 -6.951340129355232
3816 -0.8155235197373517 7.13211099224422 0.722992724017542
3812 1.622489824184053 -7.818612188098937 -5.017935771802971
3809 -7.284284821680968 -5.997486549794257 3.198036134630605
3782 -4.5788518241397025 4.434990580665319 8.780161248580395
3564 3.539302967616072 -0.4571033200938935 -1.659376735943309
3559 -1.1619980583281706 3.4562147589521013 2.0580966124126436
3814 -4.469538558420212 0.07643681637063361 -3.954110147542304
3563 -4.641793137741175 -8.830016539563887 -0.7240025475709903
3532 3.048615996272662 2.3389833487072917 4.042158006978003
3786 1.8155047499247792 -0.9610103103700782 1.5443186959306288
3815 -5.482992764550525 -2.4545958488159667 4.702197599453257
3788 -1.9552385472168647 -3.621056838650541 -0.24727289494464
3817 2.611037690420064 -1.3739930521974462 -10.181629925781879
3818 -4.995867688825415 2.8824360744578277 -1.2524761247108673
3819 1.7340651658635913 -4.445304519439058 2.304841549919151
3820 -0.8493030366553288 -4.040201287343628 0.9561337861286362
3821 -4.928447110898126 -0.5869313645562795 -0.07682673552805297
3824 -2.901258186679604 1.0798934225752215 2.7995053238361134
3568 -5.678087496960628 -5.777942017017979 -2.5441371454949184
3536 -3.0246610417463473 1.9749578475384992 -7.365329792050281
3792 -0.7909273705650812 1.8240980695611095 0.501117982735454
3571 -0.1514144203042297 2.634769246344578 -3.7910015149452096
3567 -4.578990775105042 -2.4083869896510697 5.997779460951659
3572 -3.835178308595198 -3.7419488756988954 -12.65483571168843
3794 -0.7075789158293906 -1.580532532790936 7.438258638529155
3540 -1.7675686381631808 2.136193364068561 -1.5492748696682686
3790 4.30738647881773 -7.070624365457784 -1.0305444091417388
3796 3.5647240727719316 -0.027226046628730842 5.976742633342031
3822 -7.729018889790914 4.442699259194721 -0.0039362479189462216
3823 -9.100653227979196 -0.6524029957887013 0.6113315608650074
3825 -6.49809644327155 0.531158320373327 -0.4261119265299541
3827 3.319591743833498 4.630087297009704 2.6746161594152857
3828 2.7358695709148884 7.21425635856108 -2.4804092649981384
3826 2.4549985316792764 5.078543367240521 0.9009306469977677
4082 1.4706451155690754 8.467209540054247 0.6991229209675743
3607 10.341401284834843 0.22880894055314982 0.13602739862286886
3609 -1.9852722766423871 -4.185898990495483 5.379362955468895
3548 -2.795078901899649 -0.32956998149983674 6.368888653296983
3544 -5.965631960104149 2.576903876620518 -2.99656206905475
3798 -0.9607191544839323 -1.4000713850298576 -5.350578659915464
3575 -1.901641757598427 3.0165680288696617 -1.961106409200265
3580 3.9854375392718797 -13.135441172905058 1.9394243142033536
3804 5.539989648606306 6.351100514243717 6.144678007545354
3800 -5.273095955972758 -5.899371891830629 0.5915751125071576
3576 0.4932694175929803 -4.942386154621622 2.7946749372634563
3829 -3.1443033178508615 -8.29862619448711 -4.088214625173433
3830 -0.4517000333974236 -0.8340526462642944 -0.22639526809248536
3831 3.373268306165096 -5.9103377374940615 -3.0838893027819116
3832 -0.5053730442359079 -5.086601069981933 2.3709437428695117
3833 2.878069124605636 3.7606861737150297 2.2454489002784688
3836 -1.1245184580903742 7.588337871904308 0.006282963084967563
3584 -2.4882796099956708 1.1214247625618465 4.0140134284295295
3611 4.370271269725109 8.4753040316247 4.862911024268245
3552 -8.544972131827196 -1.3926505171074097 -6.214317749160896
3802 -5.88438946056435 0.6401305783745919 10.876612793970917
3808 0.3041979618261761 6.377305543254612 0.7993080411598519
3579 7.378652551623279 -3.9738202024781395 9.43305913232243
3806 0.6864769747877244 6.7252948518270115 9.64161019379174
3834 -8.853550847302936 -2.939005027898329 -3.9950664072397757
3835 -3.727885187633619 3.0832398382236117 -1.9416900155806247
3837 -0.11404539715827115 -7.914889053765562 -5.850705158609978
3838 -4.489433575526933 -4.54607200517224 -2.0471258904512943
3839 2.7102579934180824 -9.108830073674206 0.15979175636404747
3840 -2.453055695486513 -2.6534475638179744 -3.928687852068721
4058 6.315224711264031 -2.1719460330596783 3.940494020971894
4062 11.634850481837315 -0.27469547848391873 -0.049556900351606994
3874 -1.8193079594203054 -3.541626346988494 4.243244435394778
3842 -0.21522555603283297 8.942291911483933 2.807836920012864
3873 -4.054851639731118 0.4668413683839987 -7.637955967208375
3841 -2.010778456469879 -6.409336396776175 -1.9015165083714232
3877 0.9514383519500454 2.0805727740654305 -6.80494073167878
3848 -1.3413235311244955 -2.8907993470132354 0.8340253775344387
3875 10.474003072831325 -1.5205444136876551 0.9812372979864659
4098 3.751451412346681 2.064003750022825 -0.8039032464099644
4133 3.9177606485917824 -8.262450697353737 -6.796222054733204
3844 1.5425728048210845 -1.3658820681517132 2.2633501728567755
4129 0.6386491687098634 -8.059190046622513 -1.088065703038546
3843 -1.4710694524207057 2.3966921368646767 7.433330406195326
4097 0.4237546560505869 4.056111911533158 -1.3610625092389692
3876 6.661326266002088 -0.4099771592847604 0.7638266647603591
4131 -6.999316756779381 2.0408040587870095 2.848842639820367
4100 -0.11392933480913574 3.2149258867991386 -4.1286284351964495
3847 2.664482283356115 10.091831734408277 -0.6549098066350362
4130 1.173674389097454 -9.146616991894176 -1.8106705519977255
4101 -0.08854826008368621 7.615395830583488 4.72388665987724
4104 3.976605297884278 2.2738086572668044 1.016577711152701
4132 -6.167093225587878 -0.5889591202000806 1.994226216219567
4102 -4.737441017443871 2.1556842864260095 -4.713932932804257
3882 2.0575364903520703 5.454142631727016 -5.6738675915415655
3849 0.28897429258515245 -2.8620438981702705 7.743366794933628
3881 1.2031045348224756 -1.6341016490638354 10.793668500117032
3850 -9.94432393965045 -4.980995841298781 -5.982540642734033
3885 9.71656289110616 -2.0708185417097864 -2.561643408067016
4134 3.478411883190537 2.2106165583517896 -5.61556490117343
3846 -4.835579752777044 -0.7087598239147166 -3.779849767616506
3879 -5.8020936853994876 -7.303343211351942 -0.8227299093636145
3852 1.8732433980272147 2.8535617934606643 1.4068498897448192
3883 6.5350747747465405 0.49946157449725737 -0.17265897772882524
4106 -5.516608831584623 -3.671417775195153 3.1019829696505714
4137 -4.422803506837681 6.302706198910351 7.257476471905068
4109 14.540016806785541 4.755402233580692 -1.5431091309699314
3851 -1.1778045531491526 -0.1406263324379576 6.501276399012013
3853 1.2844106866064333 2.9418078902912463 -2.5999143396365443
3856 -1.4885189166187112 0.10515524682522885 2.0946910482018057
3884 -3.6509627492277494 5.858824229049626 -0.9145729329014002
4140 4.182956824884284 -3.2560777583678204 0.16773493455708938
4141 1.1009919213491912 -4.931841585810206 0.9382459714164391
4103 7.065210505615361 -0.4834832627017126 1.3008106099310426
4105 -1.0350573179390248 4.070171871540002 -3.1884501435423527
3857 3.114520153596466 9.165085097353687 5.337317739523552
3889 1.6880909190991602 10.05557605343065 4.928619733671214
3854 5.239315937240513 -4.741912077573094 -3.2341819367825075
3860 0.4228582113845687 -3.7679861980664513 5.270630375851315
3887 -2.781583487369221 -2.0569531648324464 2.8119211218568325
3891 -6.245097801258629 2.0855529279268024 -0.6480163511420745
3892 1.8004069266729763 1.5550308614067039 -3.6638673845047958
4110 9.141856400304013 4.853660700113664 -2.295675903793911
4145 -0.5041469093008367 1.7363958230112455 -4.655933858313114
4114 -11.147924088681028 7.14886208060337 -0.14979064027496783
3858 -4.459554062496126 5.692402900810234 -5.299730216324051
4146 4.391444163197966 -0.07515887386680954 -0.570840592787097
4113 -1.6223570076939449 5.603172161842937 -0.9880669044736347
3855 10.92349515335079 1.9862593664214365 0.6293989741416455
4142 2.733718266429764 -1.2298450853739116 -3.5382999851019514
4148 5.56702962837686 -5.985996990235262 -0.6215498908736967
4147 7.782737763353158 -0.08861081594596462 -4.797797633135903
4143 -3.771696103379297 -2.76119850203312 0.8805299400102837
3893 -1.760551362090333 -10.052802079237848 -2.689644650954412
3862 3.3835361844482774 1.8816992097480476 3.2474667293412423
3897 6.470598338044475 4.830334738020042 -3.774700147366284
3864 8.972684665244982 -1.706923027627928 -3.2085149266609303
3868 -3.3357750234453545 -6.5639146805814645 -3.0057134673871375
3895 1.5687027785461607 -4.442744618209063 -2.3149037777881074
4118 -1.9502090052778185 -1.9101593686216598 2.4293992143825545
4149 0.4029690900702058 3.64214564059407 1.4901632677008307
4150 1.3268822068041386 3.373379624267712 -0.16643925710803228
4153 2.959949336710928 -0.9004483939211411 2.908184273139445
4117 -1.501741084910038 4.228234506758596 1.6888412522292857
3900 0.6326605430574523 5.47316008809078 14.774338790562947
3896 3.8410979999870234 1.6782708186216064 -4.614859708032305
3894 -3.6280967905629518 0.5024070939701659 2.5595090988314557
4121 -3.586937537566895 -2.9871655103229218 0.3907403646622541
3870 0.17879225387619302 0.27580490230472127 -7.196133902604616
3901 -0.6461619185601722 0.17033610236241248 4.795644716692377
3866 1.4367664787487266 2.6752480892596666 -11.009225833415323
3872 4.782594053837784 8.798122274054673 0.7053586361875238
3899 -3.609643808096673 0.4577263694256037 -2.9981676797684673
3903 -2.869707658711761 -1.6860122873252086 -4.2687645778161185
4122 1.865088230584132 -3.4515730949445045 4.98849547627985
4126 0.5730809238419263 2.3427832009194334 1.1840391335100793
4157 -4.3494516350744465 -10.523429806346941 -2.021515534550563
3904 0.0022038627455498797 -9.131764400511983 10.258153467916221
4158 -0.14092115707351477 0.3518317279592436 0.1227566437297844
4125 2.948123449263726 3.8992482294810262 -4.1882535994321675
4154 3.8430736635405816 0.3450736922253208 -7.278406387139484
3869 -1.8753469670516174 -1.1614585526859678 1.061237028957062
3871 -2.3017610148033314 0.16390080726418785 -5.768755860173646
3880 0.7041127847124647 -4.982053163123491 2.713402113570497
3906 3.081578355077597 0.14187647633131947 -0.28615445676795565
3941 -4.610393825715953 4.7970601649696825 -4.210180084756901
3909 0.7913489298626892 -5.020858562151402 6.871485384315166
3907 0.2889118637987702 1.1557829245141058 -6.155141274389792
3912 -3.471612135998369 3.006808818006122 -1.5830427877845645
3939 -9.333930744591887 0.2054331750946666 -1.6006478080022064
4162 -0.10061498289876912 -0.4771014946599913 -4.365297226030101
4165 -4.203841053087731 -1.2318654726708076 -1.4519906369307434
4197 3.010878721525945 2.134822423880827 2.523468548536182
4193 -4.469520978178083 -3.4837368200918566 0.21661344646078173
4161 0.09155118943825333 -0.4502636254501488 2.671651075857971
3908 6.023071970521218 -9.155898182204913 -1.8358961597406445
4164 0.9530715925300624 -6.660758599770935 3.180665176972578
3878 1.1390447653603522 -0.5974138252724615 -5.66962554832445
4138 4.956177801009097 -1.2311103809171036 -4.2341207117387984
3888 -5.2161961504245395 -1.3271457072111559 2.6045942208024586
3911 -4.540801820954336 -2.925679802599356 -3.3545632384960786
3943 0.6662260591413262 -0.3953782439380107 3.197574074891127
3910 5.548412243812325 1.5345928802336077 -8.084701484584976
3913 -5.815309612560182 4.321157317348 1.2056906446529614
3945 3.0909593616193614 -0.4947283927871526 0.9191237755782163
3949 -0.3773741849503971 0.2974797150325852 4.85653098388755
3914 5.297502695996543 -2.2975594925547678 8.22771874825309
4166 4.8827489694744965 1.4131845082389787 -4.005416969719047
3915 5.891244296314015 5.7501387010925535 1.8519930372505458
3916 2.1979310051156897 -5.161438338928295 -0.9461097891204924
3947 7.180126817842904 -2.5181012164952996 4.1322426732756155
4169 3.379555815015347 -2.394578514798075 6.098550005055409
4170 -4.802888416310395 3.535803054226903 -1.31370772273489
4201 2.4228779049151967 -1.22520169232945 0.2605942670594102
3920 1.6955673219778047 -2.691964405081171 -4.090705252199985
4205 1.1242039051880333 -1.9401060602239035 9.07666258663863
4176 -9.803178315476544 5.025928345848803 -13.003576514742111
4144 -0.9541959331509022 0.6496188650765569 -1.0287478383772939
3886 5.8924029331326375 7.348350650920483 -0.9036524155423675
4173 0.23254569604056147 2.4323654470140235 1.994401355023917
3921 2.8047735399327887 -9.312870553387231 -2.1857395373134776
3918 -0.9708462276967531 2.6578857690629403 2.8176706902514064
3919 -2.3351294690309743 -1.5989764414657026 -0.2814511588916115
3924 -6.954645674589066 4.193241993162873 2.663772339886402
3951 -5.3074824471415365 1.5889681645550353 2.26008386492115
3955 -7.786428150590896 -1.3247638439325864 -6.020471993159568
4174 0.5648944284533902 -0.18712196457457514 5.625271452653771
4177 4.2465071951091335 6.13377490623935 -0.07821706009842311
4178 -0.8139985825749608 4.008593647583137 6.829662036705441
4209 2.8800446174071657 -6.559288591287535 -4.028952477811231
3923 -2.32776393743774 -4.367785886783155 4.06159329184079
4179 0.8274403974972886 -5.283102229998193 -2.112427839051789
4180 5.714302776959991 -3.2062120617711014 2.5465732491381363
4207 2.859797828476623 7.595873568149501 -3.2969064853208567
3957 -7.061050110003938 -0.6246261827359094 0.26202783583527567
3925 -2.205481705671601 3.4348970120969726 5.881663795230887
3961 2.127463020349916 5.8738595333441515 2.797247504833403
3927 -1.9602595715462896 -6.781019384911218 -3.591227659189091
3928 5.544350248962083 6.292350569200694 1.9734147144823762
3932 -4.304604397848319 -2.0389654521930365 -1.370803076387499
4181 1.205309660057486 -8.313948592683312 4.19737090930576
4182 -2.3632718973623303 1.428372300559224 3.107600291552482
4185 -1.603687994513164 -1.23776897878788 8.287854566865036
4213 7.024054072242845 1.9003873279058545 3.5974405822655884
4217 3.5755035568624467 4.632575124825401 -5.811070791612566
3959 -4.338709709061207 2.6512120727680593 -4.210473258283024
4156 5.725142763839532 6.064690900485371 5.072634293507199
4188 -7.448656407554559 5.623706342183972 -3.864933529979857
4184 -1.5707905423573825 -2.7196935524250394 -3.775787591224268
3965 -1.841682585778873 -1.6593571019706714 -1.1932684917551426
3933 -3.288299338846694 2.3110285145090614 -2.03615266665558
3931 3.03168157425832 3.60831325506826 1.9447287270402114
3935 -4.183506957632605 5.580046988446665 -4.575455524624182
3936 0.0026997253610541797 9.92674263488401 1.011885525762311
3963 -3.1880246387046585 -9.902530886712444 -4.549378383505105
3967 -5.087297868213064 -2.3700885562742533 5.089959389552387
4186 6.688690379303219 -4.458626586768795 2.9849470305527155
4189 -0.7004232633143473 -6.25831218790822 -0.6792180114333548
4190 3.0064791879938695 0.20408167591235846 7.591867700995859
4221 -1.3961694088991459 3.567685954115221 3.0409110719487105
4223 1.1834293243081762 0.8607318681236896 -5.493007204956238
4192 8.977968597615742 10.591404651229091 -3.514797981968626
4191 5.46106180515191 8.305003674477861 -3.1310754493842237
3973 -3.561377737490851 0.26381520241510303 -6.601836193683407
3938 -1.5600972113242868 -6.898054259886478 -4.1019226845642
3944 -2.0554753508397567 -0.387222291381528 3.41364599915323
3971 4.567679550483459 -0.9813204471478768 1.4912942174430255
3976 -5.214180842881613 -5.4201835061225605 -7.834715108592424
4194 -1.0425063477535632 9.719900433124973 5.136563065405996
4226 -4.8332454780352805 -2.4823709538124716 -6.771256222689247
4229 5.245796182143506 5.19601116859351 -1.31579776189506
3972 -9.726914181733788 6.249359008498824 -3.6079226258860957
3940 -7.265399747552111 -4.756294434274323 -4.515908644062495
4225 -1.1356367934974914 0.05897223243868502 -10.597077539224669
4196 -1.0510008433881353 6.660640802943019 0.3405405986574005
4232 -3.3559337161288076 -2.1852630892026497 0.24003340643849558
4200 -2.0025401639773075 -5.201954247636279 -3.024659552700378
3975 -2.978637933572809 2.5162274263585735 -3.6255074526193813
4231 5.216288025480872 -4.802417557538981 -1.3168563550691874
3946 -1.2705331903256845 -0.7564969348771113 7.084219757771189
3977 -11.59255826037269 -4.132055264393748 -4.300559224281253
4230 16.052689595820226 -6.735869340685866 1.9874080406447803
3978 2.8124832812551865 0.37774342659160315 -4.707909586958728
4198 -3.1434978544333574 3.011994511487031 -8.436274212296107
3948 3.134919007472059 0.6048113780627734 4.2948977908796095
3979 -0.3338511540537592 -6.026706944190145 3.1670433201117714
3980 0.10734856712086721 5.762433325314211 -0.17475362535349842
4202 -0.3493938883703859 1.964968217649712 2.1637825692753125
4233 -1.7011244124517535 -5.328236606134021 0.6220569693818835
4234 -3.068225058510799 3.27463883662266 -2.0392507670194666
3952 2.4475458392199134 -7.219137404466966 7.628365351683433
4237 1.5931900715250662 -3.9455109980698433 -0.7495054472796523
3984 4.132325831111881 1.8200211762862657 -2.103801576076461
4208 4.188938578169693 -13.265356867025801 -0.24705686014302358
3954 -0.6971148891474502 9.103447797277308 -1.174316754404168
3985 -2.771753542331636 -3.745421846485892 0.8346140287357391
3982 -0.5213917791350704 -0.12425617141747548 -0.8023851602203093
3956 1.5839740862347247 0.3708989797557619 3.1249164222971726
3983 -2.1050108245995274 -1.7658357373585454 -1.37681325099894
3987 -5.9491625745022905 1.6400210324195044 -0.9130125105468647
3988 -0.9262300509770398 -0.37426147531088677 5.035514860284317
4206 6.683450172320938 1.462186096345437 5.078338492037063
4238 -4.328519153099312 10.563489082818544 0.4976122494624005
4241 -2.0971017083837773 6.252773414426167 -2.578679324010234
4210 -1.8590580688295293 0.7564085947621453 3.1758000768032564
4242 2.3228086349842347 -2.088417331844875 6.519169129299862
4239 0.67390155676449 3.761151044322128 2.649288545061225
4243 -4.090058459751316 -1.0692972266053822 -1.9144094027447247
4212 2.7409257623522225 -3.6956863944405547 5.554387983829133
3990 2.7800880816483016 6.658371322256567 0.18369570126207269
3993 0.9349455710383914 3.0793988789139477 -5.419606239975472
3958 4.048113654516781 0.34821284297817334 -0.1422368342927947
3960 1.4956929360735636 -2.9777734551361568 1.1063625041476972
3964 -6.420247052015355 -7.838099799160978 -0.527964403065562
3991 -6.8732463434081 -9.109368850971087 -3.4915909128734937
3992 2.265471705087138 0.21856713573626857 -0.9271200831934461
3996 -3.489309500850105 4.791978079555258 -16.50875890297719
4214 -2.500643789369438 -2.226681366691036 1.1486734566582588
4245 -3.156078513848648 0.41748077271682105 -5.399583081140222
4246 1.8905523159012956 -1.2837954029123841 3.297404475285965
4249 -0.9079037676210383 5.251981330644586 -1.038766376992747
4247 7.039302284318309 2.935673406023184 -0.930951737491977
3998 3.198117951801944 3.9940075638341854 -3.7467189234588183
3994 2.2025014387276665 -8.706006088984013 -0.18928654146270038
3962 1.0564195821121163 3.3084130884197718 -0.9280015043956668
3968 -2.565656930798907 0.09931474494983464 2.0402430770645217
3995 11.217274058546938 -3.667927508150978 0.47958749275453094
3999 -1.8387368806886386 -4.192505613280263 0.8920851857544427
4000 -0.4992367447385536 -5.431890320045426 2.7102844359655096
4218 2.240679419756333 -3.632342278136418 4.956794946254804
4222 -1.1549128370364052 4.5462133633879915 -0.5928524228102453
4250 -7.026827563829888 3.7942484349065717 -1.4728695182001972
4253 2.545110945621056 -0.04152875091060351 2.1196970529953627
4254 -3.8212094768806626 -2.2087217956728598 0.8834864756998474
4224 -0.907187373530505 -5.89715078027518 -2.385501278101509
4251 5.791434653866461 -4.486650296316243 0.7630132454291246
4037 -4.067277595743823 7.789977843617808 -1.7288325175641401
4006 -0.6176005961800011 0.04738073817682233 -7.08090017532299
4001 -3.3536706471388777 -0.8254274783430757 5.632203674621857
4002 8.799543267251144 2.6900574263458554 -1.794535653783543
4003 2.641646983793768 3.2982356423804475 5.412352115897783
4008 -2.7578302211193493 -3.918113331124762 -3.815956399839243
4035 7.417923495947638 -0.5189558554856056 -3.2264927506962717
4258 -6.213633094458547 3.9739163235843042 2.0862446906108185
4261 3.4445041810262307 -2.389170787419813 -0.668210312569509
4293 -7.17543556001386 -3.7439978923795696 4.7147000981183345
4289 -7.865618475865265 3.382334372717157 -0.3142525444675699
4257 -4.5562796183192 2.7121454460937446 3.681746257501343
4004 -4.25941240650225 0.937336151204198 -1.214072356133371
4260 1.8819774708262647 0.08474551508428163 0.08462428329903512
4039 5.613509870268166 7.625070729282885 -0.6857043237705446
4259 0.5042480378652542 -6.128292303035519 0.9140750035745691
4291 2.287344353766293 2.8022300121685992 3.777511051249342
4013 3.3918076255519614 -1.34870841448525 -6.933521651507469
4262 -5.052896979665033 1.263068187505303 -12.49652783016313
4007 1.7505355936136962 1.042242494187413 8.300759562936488
4010 0.3996107012307375 5.252398810636641 -3.57106973520402
4009 4.140492504768292 -0.09263219371121048 10.713763844264136
4041 4.294085250113414 -2.122482287227918 6.6209656221199
4011 -1.0726649204419918 -5.773495225401324 5.030771539207785
4012 -2.017406488220794 -9.34609334750409 -2.2076953931022434
4043 -0.07559852832613273 -1.7269973958495424 0.5438871978844576
4265 -1.3901234164268161 -3.9702415514512794 -10.353148052734182
4266 -1.1028662496110577 0.9247437511914491 3.32662336025828
4297 -3.4233974354662347 -6.923318089144209 -2.497808060916636
4301 -4.779639355888485 -0.20514069584793174 -5.819006278613021
4045 0.06907129933771175 0.3084836088612689 5.1383810553877085
4016 -5.282377226028181 3.7230582007224515 1.6207467318197937
4269 -7.741535577360643 -4.6639294656756665 4.010494238655027
4014 0.37123639571736783 -7.230277250969024 -4.3311336564982605
4272 3.756628945191519 2.9107618356500446 1.3421326705988992
4049 6.865769557773061 0.41162782206001436 5.073485127028287
4018 3.274040940442754 -0.6154085050184516 -2.26412872412912
4017 -0.22957539002228328 -4.408481730833754 6.2922848185667535
4015 11.470517133377923 7.68533986816318 -5.026432652887264
4019 -0.8504942476198876 1.2443906631017492 1.123372189156533
4020 6.60061028433336 -1.6882392127108392 0.5419990876347833
4047 -1.4495126545394132 -3.4856628805201417 -4.42855113492277
4270 0.57868130145045 -1.0109849022778485 -9.046473911139152
4273 2.263368933363858 7.638928537641992 -9.600280059404243
4274 4.511332460443744 3.9774556066232702 -2.9718696222428482
4305 -6.830661843292762 10.001775955391132 -6.33650947384942
4051 7.025167877029134 8.13105730523015 1.4528526589073134
4303 -0.2701900539570997 -10.843149887952428 5.808871402142865
4275 1.0026236407847988 1.6497773341954851 -0.811501923915497
4271 1.3907501709888077 -0.4215327428773256 -4.9740071820424445
4057 -4.6363808334135355 3.197914215468528 -0.9807420219860425
4053 -1.361416174841884 4.852257192504532 2.352841096979989
4022 -1.5640169301325018 -8.678263137111127 6.615795922522472
4021 -2.6902454410710948 5.837783323744237 -4.419796837859488
4025 2.0742700758576236 0.9257924025550285 3.6118424414985957
4023 0.7272733957852769 3.001384984007748 9.600866388638604
4024 0.8989487124448106 0.3204224264880367 -3.328002537662014
4028 -2.836516209784212 1.9103859348814507 -1.342725570065912
4055 -10.895218491102712 0.06930265697078512 -1.5904586973716413
4277 3.936873393777374 -9.19774297789827 0.6206810094563766
4278 6.132509385878102 -4.728518765787291 1.3306903287347565
4281 6.2611009171898235 0.7075087451999655 0.0998062263074734
4309 0.16765162013081158 -4.419932644788525 1.4163286017436767
4313 -4.86516817562195 -6.896098776791975 1.2330906050955996
4280 1.189861812085833 -4.613802734157573 2.2011254157819526
4279 3.3179038097949505 6.0258188433326945 5.036832392545994
4026 -2.0972688706554425 -1.6307129528740982 3.8931138837473243
4030 -2.4649048786323884 -0.7242038688501395 1.8074159002938155
4029 0.7753428720262332 -2.853250545704117 -1.4728349946594612
4059 0.23358843912194793 8.158871121942447 -0.6797604475023032
4027 10.088606534285613 0.9450640594232116 -12.590361010518992
4031 -0.15683662673518012 -0.11306306687141202 -1.3399987770788833
4032 2.7071991973179896 3.4436325023007064 0.14405387726313423
4063 -6.842902352815695 2.8416774709192847 -2.1836549243650514
4282 4.136973831076514 8.210578157806607 6.034828697060688
4285 1.4802570899597074 -6.137568699149843 -0.9975908972972473
4286 3.2300056054993638 3.6995818846651307 -4.120106422905206
4317 3.2110155908960825 -2.0351551124633356 13.588072872726968
4319 0.9173728621382595 4.946330083253673 -2.382300052765991
4287 5.745478446443009 1.9138053770656105 5.073202044531419
4034 2.9347163045486226 7.185250122541247 -1.9007734734731752
4069 2.9030230820606833 10.650717117979248 -1.2063617944544442
3845 -2.5464009305744097 -2.851440959825295 2.612339461548497
4066 2.257192411073887 -8.902882453110117 -3.023900745278109
4065 6.904891160402567 -5.1541462780453795 -4.512549306244084
4290 0.3878403680259908 4.293439252979188 6.246995695420548
4036 -2.4914691039598944 -1.8040167727503922 -3.693593858472739
4040 -1.3268202060271068 6.799039389449881 0.4734464929410608
4067 -1.7546984283931888 5.687634078782425 -10.6742478380909
4072 -8.188087568943747 -2.847700003043507 -6.240756024538959
4322 4.387553660202083 0.6330302818118472 -1.159059145436839
4325 -3.1686171660966367 5.9620527041516365 6.536685962997859
4068 4.828089145972446 1.8870059039400044 -1.8007887962039537
4321 0.43504680327189976 -0.2040263566208749 6.133507378508808
4038 -0.2985847095073286 9.762967726504652 -3.758287804961566
4071 -0.2685196633669944 5.306569613209775 -7.749933859155438
4292 9.152779718840588 -1.404430816764173 -2.7504608568320346
4324 -2.492236633005596 -1.937410797043333 0.5203922752046009
4077 -2.042658379050061 -3.4490549922711624 -0.723629601935285
4326 4.98640881857468 -2.280859605193368 1.6137512905045641
4070 9.777275087102948 5.187449599877895 0.23472994672103298
4073 -0.0332240811415043 4.667430141256844 -2.357804981530948
4042 -3.8262903011694163 3.2439469010980075 -6.743242202656864
4074 -2.8697376948569673 -1.4129107493671504 -1.5697628670692607
4294 3.800603708544919 5.259102387949422 -0.614933846614856
4298 2.579997056237229 2.3113331252348357 -5.133621497033526
4044 0.09408494696420806 0.7954053293275358 -1.094347534891355
4075 -3.786771787203164 -4.0182910319715495 5.428627246182356
4076 1.8490029784835749 -0.05851124284494844 -0.8955034636870891
4329 2.4068048526784334 2.4311369025298166 -1.767341860003839
4330 6.49122340810406 0.39309595398388114 7.284069142900523
4080 0.9066388317723881 -4.676601507762059 1.915265437963464
4048 0.6805459234351656 1.5073376197997026 4.631380064350103
4336 12.512198861121117 -7.591591203285461 -0.5290254710808888
4046 -0.9006427445895389 -2.620681500550673 -3.033320043790303
3859 0.3153939145793895 0.03581165047689999 -2.150999862604453
4115 10.112567855187427 3.0808245785456267 -0.39425691440638877
4050 -1.9348567866040076 0.5934184752657916 0.1741706347666874
4333 0.38689734625376243 -6.961261545091401 3.48070275159875
4302 -1.224439925681962 -6.688323858661481 2.384418040914836
4078 4.799633035274046 8.759435547470929 -3.59411883290498
4081 7.868420289929185 -7.040085002458108 1.9359880784564427
4052 2.3782827499446038 -7.467496442664168 -0.02456782493977589
4306 5.5761474691689585 -10.964848677611977 -4.7044302512463565
4079 2.3364898036444828 4.255375693241115 -4.582509077246449
4084 1.6138174875483775 -1.8625908306117642 -0.19022944062688343
4334 5.576625001490064 -9.634051061770663 0.412891725339512
4337 -0.8755392298810092 4.077161459690791 -1.22182244382415
4083 2.3008733404095434 8.74590708116699 -0.6381714650585698
4340 0.24435722366680565 -8.789161505917292 2.3045139178463985
4338 2.9744776444984153 1.1696885683684666 -0.5779468285037759
4308 4.812397759740827 -2.7476332132242187 -4.712292418444743
4339 3.432680769897899 -0.7343823662132791 -3.9792589747932445
3861 0.07366341775807937 9.78950300407243 1.7208709521088168
3865 3.584619345906437 -5.733067979967833 1.3570569200512652
3863 4.353401355719347 -1.0755936080458797 -8.477160615447978
4089 2.083695732415353 4.094486848474819 3.604362345796668
4086 0.5291195691296645 0.41815123749880007 0.1504000891335877
4085 2.8631758708056783 5.922745739365814 7.253967400071184
4060 0.9254950612939784 7.982436034852337 -3.155029244813054
4054 -0.11928432296801454 0.023791988640131226 2.213855653926616
4310 -0.719518419023629 2.572245878183175 -1.1125667277739408
4056 3.067524183872259 1.0110205410847404 1.6706337804483997
4087 -3.424291688120354 3.107880841073258 -4.944118389784623
4088 -8.67132277779505 -4.222915908743896 3.071653844985621
4092 -2.8983143396901636 2.3644454561695616 -5.8580190154328715
4341 1.0015191254519196 2.6921652566676215 -7.180672255921355
4342 -3.481033969075042 -3.0704692068841357 -8.299285880679152
4345 -3.244841736921563 1.2766581102551053 0.23376176381702496
4344 2.734816063494832 1.4779018816658809 1.6529062267324368
4316 0.3608301516195057 -3.151173641087624 1.3337902200832346
4348 1.801610196371282 -1.144507645626784 3.172317839742173
4343 -4.046359817488399 0.4392055718098934 2.1250528027084012
4094 2.8010482150679876 0.44048941058511704 -0.5876197656204415
4090 -1.4772921644022075 -7.251653411783341 -0.48073117897728534
3867 -3.8949989092667745 -4.992180541567307 -0.9097993535087925
4127 -0.6764307698789429 2.5957106997630985 5.883824939963848
4093 1.0097808355253415 9.517850465188708 2.907816138115405
4314 -3.474542280951825 -0.10631777765489538 -4.301228423279862
4318 2.0314814804206516 -6.626705812165439 -1.807472495384898
4064 -0.33900742437025394 -6.5491649943154755 -0.5567574149225006
4091 -0.5298750705399671 6.146441410495641 -5.3287189729734195
4095 -0.520055542000213 3.068839206087319 -4.850122603558416
4096 3.2528411228235456 0.02721239682588838 -3.0686615346168993
4346 -4.1267001072175535 9.252283855694357 2.2518631241070186
4349 5.705943301528767 2.510206485202204 0.09809160054880653
4350 1.0285229190372849 5.259493822826107 2.2359464898987556
4347 -5.41582951453555 -1.4246793695121038 -3.6092720105135756
4351 -8.890264485910732 2.237950655407813 -7.897219904853318
4136 -2.805367628832776 4.835326107215069 4.002286907274043
4099 1.4319771315804157 4.011749308504227 5.136367794293889
4354 -4.8280413120697085 -5.801085716083881 -8.549545178758493
4360 -2.3210671719046347 -0.8766932097962299 1.83764581243189
4387 2.9754432773291173 -2.958805445716654 11.622291829241906
4389 4.420586893962747 2.5456720100205446 3.9107392411804773
4385 -1.2669229286433976 6.505809242112486 -0.5508286788555342
4356 1.0079610858461083 2.467302414917435 5.511161782309412
4388 -2.704269343276262 0.7889168947182249 -1.2758467734197012
4353 5.546806005239697 -1.5310877004942585 -2.545387328163469
4392 -1.792131487705373 3.928354390929622 -6.451791359023957
4357 0.7799629291158866 -3.5356499415792686 2.6934861063777666
4391 4.144549335187574 2.895479152696712 7.497349835518811
4386 -3.5636691790475825 4.68069016084275 -0.0367486695160787
4642 2.874275011243071 6.637753401003405 -5.800213060955108
4645 -6.575897883885575 -6.746936794587294 2.2932180540690004
4610 7.774188326572399 0.1291694441109016 3.6875640395728544
4641 0.10409799728464916 0.3028388103975646 -0.1887270290878596
4614 -2.1091642449625945 -2.9926134538890854 2.7450785481076214
4108 -2.797419674200928 4.302770409122044 -2.6297651170815315
4139 3.6399922217909233 1.36437298691939 -6.696002608128338
4135 -2.251955543104184 -3.724914796104629 8.480209183930876
4358 -0.5567273462348548 3.583748671842551 1.6713474204707652
4112 13.244374550173166 -9.730474839225044 -1.5061253379539878
4390 1.5645010684568779 2.806603957725198 -0.44767754868984605
4362 4.02139285991321 -1.5855756390746334 2.7681113700600815
4364 0.6955594150378925 2.127393295751408 2.1473228851086303
4393 0.5724702569680115 1.5135798864337262 -0.12057370893484871
4394 -6.2620927099773365 4.168623494829874 -2.175661680862213
4395 6.0971284636058805 0.32315972516528463 -0.9979450318686812
4368 -0.167902908238704 -5.556360290512256 3.9002463929176128
4359 -9.540389677631579 -2.818783049819405 -2.0855928277361317
4400 -6.780815676400344 -0.587239779759115 3.8527864031994463
4363 -1.0883857812775588 6.207266847878567 -2.631618732228193
4617 3.1676234042552913 -0.9907901920992304 0.10595145990255729
4396 5.1547096001723505 -3.80291867788322 -10.727753130763409
4649 -4.4371164661277485 0.23387612035994426 -0.1826788726786001
4397 0.019009828501858464 -0.7545137375255174 9.05695342981154
4116 7.220670076668288 -3.9162981113974316 2.0692666751691413
4366 -2.7047443184572733 4.6992021229578524 2.7406590042345775
4372 -0.20737733667853758 -8.408451136296597 -1.1200866765717472
4398 6.847233946773207 -2.287901623986003 -7.219194493871039
4399 -3.018770217108862 1.8216229571657252 -5.29081513673878
4401 -0.31620195025120074 -5.8676318343030305 -4.705951462187149
4403 2.0595735197149136 -1.4249666555739742 -0.11246179268525933
4370 1.5658468656441467 0.988644581210818 2.3783888142648153
4402 -8.303875929242773 0.40378663430879075 -6.359650038878712
4371 -1.490071646092724 -3.1743012227222622 1.4361380977314806
4404 -0.5277819698003449 -2.134670486616345 -9.11442037519152
4151 -0.33227293643097444 -0.5092896589145123 -1.1078575185674437
4152 -6.733130735013828 -3.3623716106058263 -4.006101364372455
4120 7.136551223159105 -9.258188202169901 0.44905964232637074
4124 -2.889051341545193 0.6850917958148462 -5.010468715694218
4119 -5.966037666454919 3.278379730870713 -1.1509721687582684
4374 5.216630715944489 -3.6402638732169175 5.5777797603132
4376 -1.8257348064239887 -9.690834124971044 3.7882736107897705
4380 0.3394277807407977 1.6129258627631136 1.7178431672333851
4405 12.927819956681853 -2.6405543186779434 5.6577567899724786
4407 0.4317027779102414 -0.28214865810033724 -1.901352727959633
4409 2.4791482920830736 3.161554438506474 0.7681120222483816
4412 2.533005605851735 -0.1229786077814483 -2.029457507472716
4662 0.6774602847470123 -4.760824986049905 -1.379758170277983
4661 -0.9667366418804402 1.4048971973667415 -5.837083029521348
4406 -0.6266137324609427 4.306647684438134 -7.4241686718985065
4408 -9.748041870217245 4.650844838497796 -0.20702083449314646
4630 1.9655796441610778 0.3266166567920283 -7.382600055509183
4665 -8.445378583782874 -4.826704819414626 -1.8304836510925822
4159 -3.4766632809677303 4.069557524397288 7.208372659337557
4123 1.4979292318528186 -3.887686864083286 4.565174720927512
4155 -7.175010335196629 -5.306799891794644 0.10204774677300357
4128 0.5579001365550714 -5.294035507378405 2.929980568714753
4160 -0.9847344652213192 -2.1587746748819856 -2.0102720600771153
4410 5.19995017940744 2.8356547596790596 4.992800547285647
4378 -7.354224072171186 -0.152490846321441 -5.079258283163332
4382 -8.581940218077273 -1.1556506453561362 -3.4936311107110587
4384 3.3974462063268587 4.2929143607246365 -0.8154750470442894
4411 2.5014089946785734 3.117330227182735 -3.426652341091579
4413 -6.557276124597878 4.517772553268447 -2.491754222149438
4415 3.1783806278839175 -3.7933115396168953 -2.797939692550067
4416 -4.325224614559057 -0.9112984369391985 -4.999237503477169
4414 -0.8787939682159609 3.376968347280973 -2.547760802472522
4383 4.259865503544975 3.083045606863125 -3.866427153202389
4381 4.680835904520161 8.695816425005 -8.891621443006501
4634 4.654661297227238 -5.0653398702345935 -1.2184112044575823
4638 -6.106796999392659 -2.299029164718581 0.3421408261431542
4168 -3.3939449064477656 -3.0647457594867134 2.8325518265331104
4195 -3.4969298913669142 13.068903462452214 -9.111822099667556
4163 -5.7986306709501285 4.96102034470847 0.3251187357539189
4418 -4.241860735358245 -1.2227658488385924 -6.151775935581757
4419 5.860018602648743 2.2718059024016752 -2.6735125126090513
4421 -6.730238769732932 4.407500935606028 -3.2678340234884793
4424 4.90104339881969 -1.0188436236178846 -2.1700678883456472
4451 -4.773527371532291 9.405651667994432 -0.42664093833347666
4453 7.138646661712891 4.7918957886359195 -3.1114655346589886
4417 -1.8380855549880544 -1.8746801748725692 -2.1751990848654774
4449 -0.35068094429128394 -1.3194790289096772 -0.04333286606065931
4420 4.398059433056079 -4.434838954056775 0.6903015354287303
4673 -0.7945213562983569 -2.7691880781210334 1.4013166035962208
4705 -0.0002969708796928816 -6.311257120649869 5.778776288967233
4677 4.510672771351222 7.677626767314539 -1.9250324242136423
4646 -7.50713553114808 -2.584867157355549 -1.79235240240943
4203 -1.2613042419651872 -2.9527481585487205 4.779361420339698
4167 1.7944279954089541 -0.30232281965210306 -4.889307161800473
4171 -0.2259857067434437 7.420264840016418 -5.630670716097155
4172 5.121508335515039 -2.6862963915391638 -6.095471465091897
4199 -1.1761513063559497 -1.5409221600066454 4.4264759207905
4455 -0.11273033659041609 3.2628884588237654 -2.876601933246458
4423 -3.3965353004316654 1.0134667609903252 -1.3378300056884986
4422 -1.010532736570409 5.350602920562808 -5.201898881356665
4425 -3.9116028218605483 7.292263856978168 -7.802540145615908
4426 -2.159181978987611 -9.254087763485519 1.1585027141700988
4427 2.397241477203838 5.963669353070418 5.1000755388240595
4428 7.001346961494528 6.859723339410818 -2.2672763043212205
4457 5.129868177377223 -7.528665028982898 -4.113287460504586
4459 3.5284235080655435 -0.29950526355610074 6.948072407214815
4432 1.8339519532653965 9.461412459437845 -10.34938672867078
4681 -8.88521713538127 4.9172287705984665 -2.3007493872670035
4429 -4.685415204194028 -5.0831949134959515 3.833224255842527
4461 -7.241083883714042 7.433816834729614 -3.5093360103621754
4175 -1.5721567733871884 8.8029702784567 -0.9192116428410461
4717 -2.4814475421717765 -2.5184228193789893 0.14230048390652067
4211 0.7944126901085427 0.1211650364819383 3.937191408192375
4430 -5.001962274813127 2.3643461858641834 9.37864825071975
4431 -7.2746054875030675 0.48928441655299637 -9.421473959991042
4433 3.4262765214533637 -5.03222330845643 -1.0614553508594418
4434 7.988878952513714 -7.354958247276908 -2.2345312708383953
4435 0.4675122238228557 -0.04810916222374006 -3.6177183028951467
4436 3.091994553625678 1.4768793562810179 6.3659800405526505
4463 1.3476197812770883 -4.296032097481863 5.746800333359802
4465 -1.6077126512255808 -1.942114344493924 2.989447567316851
4467 3.3760525687921206 -11.38977925847156 2.7771395167706188
4721 1.7119469898107504 5.890575616895649 -6.253690394092948
4685 -4.464662943101531 4.2718953267763125 2.5544114177775032
4215 1.9102234738049697 -9.967784044030875 9.703631576480198
4183 0.7135505982209162 0.010024659361500168 1.420325135964747
4437 -1.2794913491060822 3.9713710619672424 4.840235718373624
4438 -0.9894234649048571 5.945510560770911 -3.191990680065731
4439 -2.782415163622468 -5.116871516973626 -0.43657719352966456
4440 -1.4082302573293313 1.6762115457166942 -0.6460621748988122
4444 -10.648178528511584 -3.091235048735252 -5.662836788468655
4469 -4.315864589601125 6.956808106209109 10.627670188533324
4471 2.237447302473704 -11.59139326613774 -3.7120290582538553
4473 -0.11218553183276068 1.9722598724680875 6.836432987831376
4441 8.203113950507394 -3.243227566503335 1.2898181978654337
4729 -2.25739981910903 2.4310751275316504 -4.816093893910091
4725 -0.23181354340050409 -3.19238366639345 -0.7232508770408619
4694 6.745613617987616 7.131758830342489 0.35720891382406095
4219 0.5502059467935116 -1.8915060204724912 -6.216897651475464
4187 -12.294392562654792 -6.341980370494881 3.463941605844748
4442 -1.9233272573673046 -0.2745010633523866 -0.12369502227112952
4443 -0.0806320765236683 4.6963635028771 -0.24275905934561617
4445 -9.282483133237296 0.4339694273624215 -2.242353638026987
4446 -10.267303155725179 -10.495113947059627 2.876069022455727
4447 0.2680616930152915 -2.969451987674601 -0.03830876353676211
4448 3.2430685448384575 6.010915837267684 4.740666362797278
4475 -2.066854582952482 -0.5411683706415593 -3.711769702891335
4477 -1.2118324211096878 8.624975570374248 2.397909652268949
4479 1.9116199961405405 2.050654311551773 -4.203284339962533
4702 7.370489970569013 -3.0837804375919227 -2.375872734300402
4733 0.17398032943852026 -3.5312788464715155 -7.528406070571364
4227 5.869542873905264 -2.0251879952460943 -0.8846799253166366
4228 0.053154989939273097 0.7501070238904108 7.715909392973874
4450 -2.3374368316008165 -1.3094132295909766 -8.763300888511186
4456 4.410548083032128 5.637115012206413 3.083357042729083
4482 5.240770018401784 -5.4542694577620034 -3.5551493994283425
4483 3.2494048967127385 3.459494949345076 -1.298759606244108
4485 2.425065762567657 -1.4035949415132176 -1.7652739496946086
4488 -1.1240037573380126 1.2527099243068989 0.3324291374062848
4481 0.05245757513972488 -0.38539386095231565 3.1101215118475745
4452 -2.999610304041615 -1.5809100330047747 -0.9402948286265504
4484 1.8235537620231326 -6.22177797836182 1.4786514038758436
4486 -1.8179217028978072 4.709248649145697 7.677368009841626
4706 -2.7124859473059324 -4.7270900875156965 -8.038756448041012
4741 2.667689984480615 -2.2665454022755567 -2.5112751522028325
4738 -2.0746420830119 -1.5203335162270553 -3.0680113699975786
4204 3.44860718618359 0.794318035989554 -0.5700847355082644
4240 -3.1710320501120264 -3.6632419105520513 4.396155616208799
4235 2.633923092815658 2.0114294958138137 -3.531492184725841
4236 0.9241038296474967 0.5334866100402628 -5.748556615926608
4454 0.6826928786432209 3.0522932034610313 -0.017818678137016868
4487 -8.051408827973862 -11.576541060097385 0.13335648081365664
4458 -0.7020019565736494 -2.0656295767532478 -6.336506542759901
4460 -2.1672819747697214 -2.0270841718342907 7.092502428252009
4489 2.307261766477007 1.201752227225534 4.622803848526682
4490 -10.114654361563714 -1.055219589607809 9.940844770570896
4491 0.7565352323993538 -7.596582677584181 -1.3341931772221267
4492 8.056211138671742 3.31332852769485 -2.524915301510584
4710 -4.098117959149849 -1.1575106366835433 -0.053999425504127764
4464 1.7162461411861751 4.740347069106177 0.9089421468559947
4493 -5.837768532649991 -2.5921442874964793 -0.00054838385101387
4714 6.083784737465147 -8.441138521243014 5.2871226961983595
4742 -1.649673768455977 -1.064069773006563 -4.55453713110004
4745 8.662388595106616 -8.275283979907032 1.5803625003199935
4749 -1.0359675011589422 -3.44960736915259 -3.6978689782883056
4244 2.299099431207071 -2.0163891507715097 -2.482637459496658
4496 1.6317443799010685 6.0071087631381035 1.6423890989414622
4462 1.9295177672190158 -1.3455267945660496 -9.485932545233362
4468 4.8886616420947995 -0.27886243971546776 -0.27422011862983114
4494 -5.746270669929226 -5.592825163664184 0.2709835741113237
4495 -2.828736985352298 -0.6460925151980912 -0.3785261611963813
4497 -4.831381506550995 3.2902439367697007 2.8480503214167117
4499 -0.7278638842084951 0.21227851737820957 3.554747021327684
4500 -2.8747130014109503 0.07730461422367546 4.68326227613113
4754 -5.307784136959096 13.115378972895535 -2.633896992964117
4498 -0.13274677207773444 -7.2468880560344076 -0.44372707853106025
4466 4.023260541370075 1.3942959334597234 4.884816862172337
4753 1.8392036576669972 3.1655514848003596 0.8084497158553192
4722 -5.393998476917705 3.375651921057407 0.5159178245566012
4248 2.297331492838628 0.8393765218469751 -2.145645361559622
4252 -10.67736996328094 -1.5042050138163634 -4.516220791376468
4216 1.2193098690341173 -1.6661575962348716 -5.260510182457646
4220 6.636888646573066 3.4634439578892176 3.356382294594159
4470 0.9853359741270563 -10.93783278362303 -8.994524383825166
4472 1.2610130950382017 -2.7752165589518376 -1.570966572298951
4476 -3.3035434023142143 -3.4710122976845748 7.014011485290375
4501 -1.8799048336986808 -0.1838211525389451 3.698742807403368
4502 -7.2855727504129275 -9.461292016990317 1.372348375748847
4503 2.9135410137168596 4.516141986991935 -4.9711589624327
4504 -5.217468266763818 2.4772446621452047 -4.417543550509927
4505 5.402422165071881 -8.413532930558635 -1.360851872394976
4508 -3.7475484244461548 0.5016765945669722 0.12682358380795364
4757 -3.8422629962085213 -2.584379096971015 -1.182820515180528
4758 0.4283440021561542 0.19347593373659225 -2.148726639837413
4256 4.025339920464056 0.1274598480159918 -0.22280388804016976
4255 5.220528941627188 -1.094448710132909 6.315067194766667
4506 5.840899161744648 -5.10787193152053 6.751648846235388
4507 -0.7891691374692319 5.615896770988599 5.674004505472907
4474 0.8013523638959058 0.10111929743543219 2.4959030245650173
4478 6.1980472990844 5.716382714509825 -2.3962915384290024
4480 0.48412316358559765 -2.3969461997762824 1.904771911944981
4509 -4.552849798652628 -3.184126266758583 3.2426695577158324
4510 2.3158285631499322 0.1742904628889399 -3.854542916344606
4511 8.107665976012086 -1.2906588355442927 -5.378187125878744
4512 -12.582255637463213 4.412496922020501 -3.865820598557996
4762 -2.0882862185717723 -2.1031296437161124 -7.353099958054303
4765 -5.528231652428292 -6.283856454210271 -8.324538065230977
4730 2.264359838983503 -1.0696866095560582 2.1441288272339856
4734 2.6578707109626376 1.0839920364695839 9.359888629448756
4264 -1.4023048281216233 2.1667825851679847 0.36586466255536887
4515 -3.3721726269237746 -3.7692924886569683 8.284039147822758
4514 0.30892414459634915 3.5115640812335247 -5.559321236116547
4517 0.9454088309629511 4.267697121623559 -1.571820281699058
4520 -5.131071951463275 -4.411330690886584 10.246005434956771
4547 -1.470288680052723 -0.815253559460029 9.531846288023742
4549 -3.2377255175935 2.6575962116244036 -2.3940150095780486
4513 -2.3075353511263224 -3.6135474340916582 -3.734280648922692
4545 -3.5897189784796977 -3.0403173365046006 5.200948727234281
4516 -0.11045435884674809 -0.6842389099598123 2.2710928759760343
4773 3.1393951908144464 -2.876478983158887 1.313095101764728
4769 2.3042751186526105 -3.10147839132317 -2.3769775154505206
4770 -0.5139027463763457 -7.61280660311171 0.09975814417590048
4546 -3.608648377159699 1.0367257650924708 -4.614276586109701
4299 2.4913310333051566 -6.248688568984461 4.413386683040631
4268 2.8963849189881845 0.09979890798978987 -2.6490159370918116
4295 3.3262008445886533 3.796817843139917 -1.2060881684093228
4263 5.5760308705579185 0.7793943428547976 2.233092213172016
4267 6.547049501369418 5.204777604206875 -1.310156451736689
4519 -6.822605248450938 -6.010638178238696 2.8203111209836207
4551 8.106627604178296 -6.247341151683635 4.181567963246299
4518 -3.6802937926856583 8.627705599883004 0.851630203584618
4521 -0.6591125609591203 4.572288445546779 5.577643642986535
4522 4.804632545545861 -3.345069330853191 0.6642891862630655
4523 -0.31826748251707604 -4.164608528325694 1.644832757585222
4524 2.633520363662144 1.6618990299558771 -1.9076452838905664
4553 -0.27848405964360856 0.8059413484102578 -3.762199977872644
4555 3.96246336659085 5.708727643591659 -3.6053141086149716
4557 3.625782984468243 -2.1849766640551858 0.31285176919740715
4774 -7.804324155898129 3.9120411794722 2.8976538217928502
4777 1.3074664636595708 -3.545713222090591 -4.827759221535983
4778 -3.007642178193272 1.376708954988308 1.8387342796888713
4307 4.521574080967508 5.0965551545713605 4.893862593139909
4528 -6.475430051868211 -6.8993071112472215 -0.9123691888921539
4525 0.7345081189084323 4.045946115384369 1.9849829399068002
4276 -0.03413121028671819 2.34608623192002 8.103006011492496
4529 -1.3933009933420009 5.552710006139557 -2.155892258883658
4526 1.0245557685471116 -3.510867217877169 7.63442551616252
4527 -3.213715848569819 -0.3749790274116016 -0.1738655622338619
4530 5.877467207892966 -4.538355230386277 1.716865165789826
4532 -0.5492077192002711 1.5353965892022141 -0.9008722485680325
4559 4.913769522979858 0.9696572260602402 7.627379923498749
4561 1.507303371733729 0.48633027608847773 0.7568704996138261
4563 -8.501722449649943 2.1352958210679978 1.216381887478888
4531 5.104358892900186 -2.3156112383874907 2.775051334450387
4786 1.4413414596816327 5.061113034782839 -0.6299416683910769
4817 -0.43302182375951137 0.8017623998463367 1.2624332522670534
4311 0.4317592889401546 7.2076331687404025 -0.34781682470300856
4284 -2.6054696987683563 -3.3831806144039285 -8.817805231851578
4533 -0.357203181251215 1.2811524928107936 0.8268451327245447
4534 3.6412611429501367 3.844386443913942 0.2632473710301367
4535 -1.6130438651627887 2.3672741588504795 -2.2418656608331653
4536 -7.179085258411332 0.16906671842386134 -6.73940628816958
4537 -3.060298421671192 -6.110698015792008 -0.2880526144696022
4540 -3.390925943270831 1.3279598869489937 0.27960538779400773
4565 1.5152712009327711 -9.064091335868186 -5.44618824706904
4567 -0.23689704127725722 -7.981438797574634 -4.181630709227085
4569 -3.9653743973604416 -7.452596486971929 4.009336312591647
4789 -10.924555831464113 -2.8244645811739084 -2.599309516812408
4790 2.869542012661913 -0.4337898984462106 -9.761886067814636
4572 -1.0900911685232977 1.6471396196292158 4.042486491826994
4821 -2.379877715130625 -1.2425630918100738 5.339012335801357
4288 -0.5787243580401678 -7.74935453511132 -0.1596439704995723
4283 4.148655433774794 -5.119578689057152 0.3143395473284819
4315 -0.9509913767126308 -3.2759680230557864 -4.3765690607955845
4538 -4.25963307385477 6.138595704811666 -1.4970126666124528
4539 -3.2270600835109975 3.8202801706127265 0.5755951274813735
4541 -1.0474582643823998 -2.4797662937286504 0.012953181631773399
4542 -7.046617566097466 -1.0682288648456633 6.0939432789977515
4543 -4.7206778949156 -0.14782669117083339 1.8116924710014763
4544 -8.876250021303154 5.190657756586123 -2.862755950261341
4571 7.270403718905733 0.6822030336727849 3.0594867964602193
4573 3.764570272587637 4.439879869857391 -4.377725372241108
4575 4.141231158510099 0.6774697398571555 4.783740025994528
4797 0.4372272212100658 -0.8270955671058756 0.5583026524214981
4829 -4.6708190782187415 0.7613176190324495 -3.643018934057459
4296 -0.6948124149695996 4.669266197238842 -2.4577430986405306
4355 3.786129411041234 1.7692783848260776 7.422153990933455
4613 0.8407778370151348 4.157575366431003 -0.6128368146307398
4328 4.7502972052105354 -1.878012505045636 -0.22604259518650677
4323 10.152769916314348 -6.72586996934057 -4.892435865170885
4548 -0.4527867704053143 0.49433241022563945 6.963884039485603
4552 2.656158799528238 5.969038028618989 8.670642480040284
4578 7.268853610545678 -1.0131122997131103 7.557560553586953
4579 -8.221406383356936 -0.684231408182514 3.894535340632637
4581 0.580181161993069 -2.016414039417972 3.2096633058618815
4584 5.3183031628694435 6.888120201749 6.225072289706326
4580 -7.559861438457079 0.1668135256675632 0.8691586192049824
4577 -3.5844273748904323 -6.5433513873374425 -1.2495553641574912
4582 1.833812473987721 -0.5273883689284027 0.9705459401019089
4833 -3.9004111269587156 -7.616406483125359 -0.5319528228976607
4834 -1.6993261070398455 -4.974091335393639 4.171011902050974
4609 -1.5335020359452167 5.394990572333949 -3.030196260025442
4331 0.915917485524424 -4.264952551096291 0.4917814836848714
4107 -4.238659935522256 1.9603562994310215 4.430907742825766
4300 0.2808505413127487 -2.8059142961339565 -0.4724476500806105
4332 6.6569738373311065 -3.825561303155689 -5.481369884348435
4304 -2.2020364582633656 4.600022617686319 0.6591857764868154
4361 2.0562223460116247 9.212908601197766 1.1580857832238882
4327 -3.157151381501189 -2.935375229808013 2.3315223336528175
4365 2.600076281311877 3.1019993638886474 -2.7119539400779287
4550 -1.732712818728518 -5.555090827082658 0.9028324521658178
4583 0.23502376347662726 -1.484635474279909 1.5096608790894535
4556 -0.657399029779055 7.20156295327679 -2.9803736552277633
4554 -5.672476796148739 1.6802903671422333 -4.339217077024054
4585 0.4616224831176793 8.377991422117923 1.6379928474688643
4586 -7.396624107523533 3.81237006911645 4.401317599996661
4587 6.608212327345161 -1.7878031084430053 -0.7444743399448925
4588 0.31721661782350563 1.2177030759097123 4.974617597319509
4842 6.342016721479694 2.4667414520807607 -2.109204590093699
4560 -4.2375328291372325 6.648007856548881 -3.316959838809507
4589 -8.876930265330287 -6.127132483758592 -1.984627283819992
4111 -2.2701643207720856 -4.583962282145089 3.9270792834896366
4335 4.052375740685805 -7.30558697538921 -4.342160613900517
4367 -6.662205356778647 -7.738990359005943 2.8113130447663557
4369 -5.075789147148526 -1.588642783993955 -11.078844397899067
4592 -1.6096035098581292 -0.609418655447002 -3.3521332144605327
4564 -5.428121927345717 2.738448370394611 2.8192217029934876
4558 -1.2107169910199305 -3.4813164434523056 3.9909738316341046
4562 -0.4727298856097486 3.0216142507614174 5.749624596906509
4590 1.9840822342196147 3.6402537026121626 0.5923560725150561
4591 -0.8448064633501187 1.975892751836626 -2.3491933251980894
4593 -6.808067056189176 4.85105633741228 2.1339140567066264
4595 -7.454353483358267 3.3239453536745254 0.6348842488963915
4596 1.4844646914404132 -3.6009063264358643 3.473263986653606
4594 -7.347716518794135 -2.0603779438566057 -1.9650786098305677
4818 -6.463475054031655 -2.3895554208331924 0.13819479334367196
4850 -2.560628529225169 1.920905550552564 -0.2360354339363903
4846 -1.2898691743893638 -1.9838814226652446 -1.671574141856882
4849 -6.353620054488018 0.2569760781893063 2.7846069807840497
4814 1.4678343266967249 -4.097196232142262 5.779603155845312
4377 -1.6934860729313161 -6.15172524793594 0.5524224351703036
4375 -3.528458673185606 2.805256893261421 2.322403038465103
4373 -8.321142669715485 -0.22898204000166972 0.36820909243434896
4566 -4.1452135077199195 0.25432693177545085 -1.200009112172662
4312 2.101223725620953 -4.161917558704976 0.04568124382271657
4568 -4.008755128011396 -5.168526554872231 -3.706083171429592
4597 -8.331080893070089 2.20242525356184 -2.9199883452243127
4598 1.647045571460745 -6.35531725017256 4.106407392252389
4599 -3.326464296242658 -3.678035414310524 3.521434829667062
4600 -3.3587698639859593 -6.888307086906251 0.5863680897148653
4601 4.097043070963652 -0.7620209305886761 -0.5703025877806139
4604 -2.0181199126136886 11.577039172899411 -2.0891715303022003
4854 -3.88127817387976 0.5032449748305013 0.16401495863886204
4857 -4.803452838083326 2.508873356037293 -1.0285720997889292
4853 -0.2207509663254647 5.901422786752453 7.5868112910459065
4379 -3.189502316304502 4.224892933541366 -5.7142839433192005
4352 -3.569511372378651 -6.441885108977352 -3.4886768464923787
4320 3.6146687039090186 3.9987119799822066 -1.7579070383578346
4576 -1.9676368869019785 8.220495614976986 -1.1399465259626018
4574 3.0782026634511026 3.6438006397118903 -1.51288998176984
4570 -0.076692615432564 -4.747168078623755 2.819372737982203
4602 6.141414208136353 -7.379812434831711 -0.4318561718831791
4603 4.89775824712118 -1.2294179848429054 -1.8049306598563815
4605 2.46047733734341 -10.203890841158746 0.7196584460403779
4606 -5.85969554057104 -8.897676658727615 7.620698410331535
4607 -6.977472355983591 -0.33860330519448856 -3.1041508810639957
4608 -0.3591207864002143 3.4138074861516112 -1.8932349383262017
4858 2.5680413455356326 -1.4434148544242218 -7.000888911397805
4861 -10.776476644439473 4.368112635413748 -2.891165091339263
4862 2.3356737305231072 -5.041548522955814 0.8862513800425236
4830 2.4570065812287374 5.1838564346785585 -1.2257210499964855
4826 3.070544514307571 3.969853149013174 7.0880940731034805
4616 2.685916135247552 0.9836361575992235 -4.226701553373176
4643 0.15626855382941265 -0.47953768606606284 -8.883204442947429
4648 -0.6861666412441526 -3.9038983691942657 -4.216802062150663
4866 6.168076996126573 0.23553272578352116 4.128233251623092
4901 -1.6374941639789489 -3.4393929892182773 -2.4793219642114663
4897 8.647477300426466 1.1057241155235733 -0.9671680431689975
4612 7.866729662558267 -7.087260419835599 -1.8288707827470507
4898 -9.46489902945383 -5.541753187435232 -3.275240784521947
4611 -3.6630742920559296 -2.510352453786318 -5.8895931357058275
4868 -2.06355016788369 6.903348287001903 5.937240878224745
4644 1.9755491171888049 2.6642362961618917 -1.4168628564482697
4869 1.4771613207979666 0.36084212830011825 2.2907229139270906
4870 -4.316838218621186 -3.566810848002683 0.8909797281541364
4647 -0.6882367649494703 -3.6698208486453052 2.649572274587933
4865 1.8289284203889944 1.1550213130565827 2.443268184579939
4899 5.010728988740463 -6.4591649255587535 -1.3505262108312823
4650 -1.2515086509305886 -7.106698491279332 -3.3541016497395924
4618 -7.979735431350927 -1.2772775273387795 -5.386114721727417
4902 0.6002926432061739 -6.670223126405233 -4.3512572077069125
4620 -0.9316861041422492 -0.2506878564565115 4.308263783152786
4651 -1.581601055061375 -0.2608233958388264 1.9702513221335756
4652 4.941164913329933 9.096793362463043 -7.774021093150389
4874 3.8157757699475376 -6.554675532546738 4.993917852983701
4905 -4.808295180382995 2.087347727245988 5.593969054965961
4906 6.420754787931324 4.21186131882617 0.40482988200768794
4615 -0.6206202633829663 3.0078645608550367 2.2455997798415193
4908 -4.724939524360437 1.4804377357349792 8.5391139122161
4653 2.0993530624427286 2.7871511703944565 7.153996459869103
4909 -4.9126663618735815 -2.0616674694844224 1.7437781349915158
4873 0.3360277560556358 1.9065636200653744 4.851084042275878
4619 -7.5394274584248295 -5.6683316713120036 6.323413134979314
4877 -0.23285239848976988 4.592632981559768 -1.5482612504489415
4621 -1.7005484284233583 5.441213742578091 3.300435372139264
4625 -2.335130653919819 -2.4851853684845064 7.29086520049602
4658 2.06380361553577 -2.7605549546636317 -2.914173864471824
4626 3.8346238814622766 3.2156716750207814 -1.6781138140294511
4622 -0.5499375697022345 -3.378875354652657 2.2238683182791816
4654 5.679845677264561 2.322840283517317 -2.0811500234146707
4657 0.24763091561544592 -2.8665616748633163 -2.1071869916355057
4624 6.188786504025138 2.11045680953449 -0.3578591181370763
4628 -3.9527169663983712 -6.235334545756306 -3.443828223126287
4655 5.0535091679446955 1.7031848956852293 -0.89588282407101
4659 0.9527569584067407 -4.174911381003753 -2.777517306539584
4878 -2.34678870103499 -2.225979486621705 3.5507719627353307
4882 -4.544711351349167 -0.3278934062822936 -3.131806331559815
4913 -4.22272298424299 6.070127298909698 4.733110320250897
4660 -3.8681203885955693 2.651954560647565 4.20906728104016
4910 -1.413211717043773 3.5433858171192267 1.3618601897106541
4627 0.4693013338506988 3.0675879982084924 0.15504526507993757
4911 -4.2972383789874975 -0.9953253609531705 0.480588150095126
4884 0.7054375736492217 9.399058310293633 -2.89607997353335
4656 -2.7251435939125397 -1.923583694415428 -4.443443105401029
4914 -1.3913461771012603 -4.521551658993428 -4.231041899835643
4623 -1.2472516336658765 4.3524017704379565 -0.153195270188272
4633 -1.454176900784994 2.895484195364162 -1.3892011352965632
4632 0.09432869599497984 0.9494087060339322 0.514690556374372
4636 0.07837412407068073 -2.906200186440069 -4.32919389990446
4663 1.1536685929493575 0.15275613894678475 5.141988277186952
4668 1.6644347887071964 7.21662426647276 -2.3387575260196165
4886 -4.296136707789333 -5.273002822856315 3.267922229739545
4917 -7.914180781047656 0.1001944638171808 5.375433988614193
4921 -6.658743521773963 -2.061678441994364 -4.097834395032728
4918 -4.057011909071656 0.6258630935890029 -8.475618458140518
4885 3.553735695856654 2.21766731095171 0.723072146356915
4888 2.9896495652969923 -1.888993431629004 6.243715410922078
4664 2.286796518502756 8.312699266010902 -3.68271596638873
4892 2.1527275840873137 8.610625825808036 -0.6141423430435785
4924 -1.6634031421968154 1.5118984233941666 7.745404480107451
4920 -2.9054264096916453 -5.771743044602038 0.257190966022528
4670 3.8975265917087163 3.30257878815162 4.783633747780987
4666 -6.810214233493204 3.2302074367545153 -1.8328994851103093
4669 -1.995041583503094 1.080724198323609 -0.1989296452075472
4640 -5.476451357766478 -1.2119947723764182 -0.7645853526679492
4667 -1.502965827989113 -6.988958692164715 5.688579397491432
4671 1.8201014588406572 -2.343943477234151 1.2412717697430733
4890 -1.3388236794254385 1.8848748804813726 -2.2323854106313097
4894 7.697351391850079 8.833515369630316 0.19059598740368272
4922 -2.8153653848451308 -4.878680658108177 2.4616490751650755
4925 -1.2412969177422464 -0.33014555261438916 -5.1492060176576135
4672 1.6495230714147922 -0.6688148048396382 -0.9194199940347108
4639 2.6177022331062134 5.055509192990031 7.084042046189775
4893 -2.0649143437341304 6.792132501476313 -0.02608796202838016
4637 -1.6439494307021523 -6.080888834700297 0.44607351566765163
4928 3.277119957892431 2.0868550817791434 -0.7493330654118364
4635 -3.4571638574918504 -8.986897244153285 -9.68864384565879
4895 -5.868913359598979 -1.1349897260259745 -2.938125398673844
4900 6.649571571420852 3.1121886777252823 -3.034290996104014
4709 1.6446063342511799 1.988888479839826 5.052291912229523
4674 0.7513839070371412 -1.8168885820383602 -7.562042675134734
4904 4.132653850493866 3.278624048323847 6.256416581770573
4675 -5.459685245874334 -1.6326637925167653 3.3817523963661427
4680 -5.193102970284293 2.1484343752142347 5.832196186101486
4707 3.080692920127289 -5.288916040195766 9.411924890289992
4930 -0.14937534458741603 -5.4267759620612095 4.225098800714426
4933 1.9826879262799972 -10.077212135425977 -0.9587771300017248
4965 -2.533986874613083 -3.1635062232763347 2.1978800366814664
4929 7.1235234245554455 3.320467807223736 -3.062619972097737
4676 -7.134649767800957 6.6197281611903005 3.167338962135225
4961 4.1384453959915675 3.490758939025501 1.2535477952242748
4936 3.219166104101701 -2.0000280351329125 -5.330041429606305
4932 -3.539948529026523 -1.4318910958961517 -5.315371126344123
4963 0.14629668165559706 5.524859541970902 6.497298268820909
4931 -0.25413663200929937 0.45298035560659494 -2.158084344894736
4713 2.393511922598312 2.316692872576237 -2.117981860749415
4678 1.2189387882917448 2.1438388263001538 6.960094882092812
4682 4.314079362095349 0.1837307323227012 -3.0913144544348587
4934 0.800506235474212 -0.7703215332077958 -5.684028251555295
4711 0.7680409349778538 2.0703546141525853 3.5084832712012255
4679 0.3776601799636326 -1.941767706713465 4.767452075079396
4683 1.8198411860406276 0.9523935497608309 1.176713965689433
4684 -0.8698927567538212 -0.0909120930610991 6.773247240465584
4715 -2.6146760732779377 4.042554338794443 3.21995093539272
4937 0.20552900216810704 -2.778123368863387 6.443702030465448
4938 -1.9619591469829025 -1.144011083965173 0.8926537952793269
4969 -3.662860994268833 0.3599759543620887 2.9250860070538605
4973 -3.4376355553709765 2.7457951576451918 0.8060765586527804
4941 2.6162842167662688 4.932134944699263 -1.7624554292728112
4967 4.106865686751849 2.570446535874159 -1.8508243147589845
4935 -4.327168447159531 0.35941338323705585 0.30971899242798967
4940 4.7536762930045695 -0.4292096934509628 -4.997598929293508
4689 -2.3995777563555483 -3.635507742504721 2.608398871606745
4688 -7.578368842800717 0.5836090745406624 1.7309324136142414
4690 -2.4748302396911876 3.154100801993914 -0.15406640479149347
4686 2.3058032163297226 -1.5235029626916101 3.24846896154299
4687 0.016540964791103254 -2.7902165847831655 -8.034331634934249
4691 7.856307327019936 -4.940754048721585 5.235875371584033
4692 0.8616552930993606 -4.414491075504804 -6.982831973253475
4719 -3.448163280112303 -2.5158376888092913 1.9693060359874928
4942 5.148026095795551 4.308543288354942 0.7814410443324015
4945 4.5941241820805265 -1.681182646448889 3.253090389197454
4946 -2.152811827335905 0.8360868990377306 -1.7649339097557848
4977 1.0168166578894007 -1.38928034857836 3.7947971684517525
4723 0.10230917567960525 6.808795869838274 6.157944805190251
4979 0.13763664899217365 2.047681669969762 -2.108643085923119
4697 9.865865700312023 -2.5231715718928673 -0.41130180000652866
4693 1.3290242066702005 -0.078321653670997 -7.084141502166851
4695 6.070178812691169 2.4755814720057447 -0.5063210878569463
4696 -5.261735588422496 5.357089615143433 2.298578135160497
4700 3.704954361504092 10.686065916302846 3.5726964845778486
4727 4.234806598316918 -0.5292915395285315 -3.0851326165046387
4949 -1.1709656645502449 1.450705288442254 -0.7379524233321201
4950 4.57667946735333 4.183992818823514 0.23922778113726467
4953 -1.6928479263179037 -0.1697684660342627 8.742786457030979
4981 0.19616295583579457 0.25814024130902646 -1.0027990256869566
4985 8.011493844549168 -6.5570841074106045 6.34441470531654
4951 -1.5283398740965801 -4.084778202723975 1.4446122735243536
4952 4.651321716591076 4.9728605943214195 -6.92621121959388
4956 -2.1258763173868807 1.3429094476285797 7.606686671687614
4983 -0.19067394867636778 3.2079350519200296 -2.34255063400632
4698 7.709383526028033 -4.428643630705181 -5.353296254057541
4701 -3.2630342938056054 0.9536931693055495 -1.5709497460321422
4926 2.8808005441478377 2.109197683804507 0.18839364045948462
4699 4.4656106462367715 -2.789910872449089 2.9926479271865576
4703 3.14814762551798 6.58544981087673 -12.520068953770613
4704 -0.33143989597334894 3.2545726374985007 3.062529860147062
4731 -0.26110298839319435 0.1430184101871816 3.6136669047617285
4735 1.9991334587770504 -1.6651428373254347 2.817575006325621
4954 4.236252083541369 4.551591015794092 -3.2364639494105907
4957 -1.7013438200308124 -0.41636592620399326 2.0688224964013733
4958 -4.218775714105027 4.280070915727023 -2.738905762132506
4989 6.899164094163657 -4.1806971704158205 3.281000764059967
4959 4.540842051731167 -3.21002076017808 -6.17028108991771
4991 1.7611572689775106 2.7827766609547466 -10.350914018027654
4955 -6.6159327571544715 -1.148595422110624 -0.7279017647175724
4987 0.17855148411326327 -11.373699289482696 -5.1178586396500405
4737 1.9183390984799207 4.67587670534238 -4.328101582391712
4712 1.9093514001622354 -0.7097752888513615 2.1589934241515683
4739 -0.020764564967066093 2.060164745917495 1.1006030723133835
4744 13.353802596385599 0.34407613453274394 -4.760499894020268
4962 -1.2006611814770989 -5.027617666899884 -2.8369682331614396
4994 9.004606723583516 -0.8117757659515721 3.2475185830863995
4997 1.0833940183248292 -3.9286400562606283 3.9840702777404413
4708 4.680833804014179 -5.6375883842087875 -3.4424818005295705
4993 -2.775192867555995 0.19251688070297546 -4.0051151483654035
4740 -2.8456667028089218 0.328513402237376 -5.821152219318841
4964 -3.570409435951102 -9.611901238021794 3.1924309851378414
4995 -4.125220639870851 -2.6796805466542253 -11.001902942648194
4746 5.335434640619128 7.483642130934596 5.459785113779272
4966 0.44185532842005465 5.568004854478166 -0.4094923974225957
4743 -7.826634342683095 3.587002591881046 -2.4485277470395737
4998 -5.230770235367519 -2.12442000413511 7.326113635204376
4716 -0.0920839621595946 3.0713446736549503 3.9681670697627554
4747 2.4986270996835027 -6.002156011972049 -3.6316152557069934
4748 3.6148556010386406 -4.999951297448744 -5.162523473324286
4970 5.055099739023582 2.3414969294421866 -5.895375837173751
5001 0.4754640467326462 3.494342971943944 0.2278179762437408
5002 10.711313616413548 2.672017506051087 -3.878737069665321
5005 -3.3622371262877793 5.579225226959253 0.011386196532456719
5008 -8.24738861641139 2.9853531754438953 -0.6688231847613704
5004 2.8666562291887114 7.838633367094325 1.2218196747118832
4972 -0.38557705741925735 -3.407012014956929 -3.7781023570935113
4999 -0.48168330726720526 -2.8592437724344575 6.235718071458906
4752 3.6590852918404746 7.468653213950124 3.506888875614607
4750 -1.6080442822015253 -0.07648121015841854 4.9799257774265575
4718 -3.4887185754165793 10.663968436212974 -0.9466517873587339
4720 2.0157170202087684 1.7608391731654685 0.8314214943263453
4724 -2.2816889110649443 -2.1210667357471817 3.44601121076133
4751 3.7815092420887026 -9.657460791628655 3.371935255617369
4755 0.5531210591426564 -0.023095264617044944 10.652812302980216
4756 3.9208184681514786 -1.041054663925941 4.757786711046572
4974 -0.029076846697165273 2.755182433614497 0.23361041041016
4978 -6.573664438345888 -0.016093583594702147 -3.1767836316903146
5006 1.5652770221032533 0.8138157071263946 7.500936785387181
5009 4.2540871570927 6.558924542714564 -2.105419122740205
5010 -2.818066126214335 -7.948261307384562 2.2276735848661486
4726 -1.5907265121050802 2.8025119700138537 -0.29675440491214655
4761 -0.370406883399174 2.6922131690554836 -8.227412264482293
4728 -0.5622434115711559 -8.714832019314875 7.2901275945681085
4732 9.187385625117132 2.441177656253414 2.7285185565724115
4759 -2.065973168609379 1.4973081805734496 3.6039266040897346
4760 0.8626535724434841 -2.389861674169152 3.425529164238759
4764 -2.9611745624261436 0.49238424110011686 0.976059250878625
4982 5.062946176225302 7.460020389504662 -2.252970396233624
5013 -1.76324132152576 -6.765668264506277 9.389697438032657
5014 3.977414868236088 -5.6775016989551474 2.072230177454588
5017 -8.166844661885715 2.5280034956999806 1.7249995685755333
5016 -0.9349956349348736 1.618441568934868 0.6791385176419759
5015 -1.2022779908864332 -7.958633862077235 7.551602704832023
4984 -0.28365070833476885 5.457450437542812 -0.09534542692624542
4766 -2.9393890644999052 0.9149376181084752 2.155179296558546
4736 -5.405621097197106 -2.9390761265634198 3.7036046386732506
4763 -0.03164940929735831 0.06842617946745344 -7.579459102815981
4767 1.4699769882752278 -5.598657726825937 -3.9989378088440404
4768 -0.5583774400584203 -1.9844590258391916 1.0992339022895288
4986 -9.032190904136852 -0.08135380422912186 3.5319145638198273
4990 -3.5815377274513462 0.7188027770700631 0.7772354980241617
5018 4.7988886612176485 -4.977540561533871 0.6397782402825541
5021 2.1306291626112293 0.7668381617734658 -1.9893566169932522
5022 4.558013515507146 1.0952575535697275 2.3791850042148925
5019 -2.801267786552739 -4.378205810479497 6.446576149924655
5023 2.7524971916337013 1.9210730178021995 -0.11157138377193355
4992 0.44953692207750046 -1.5325049884202908 2.847310154405302
5024 2.372871710589589 -1.0950567626716012 -2.5349956442296717
4805 -1.8290112204389235 2.0848370586388048 1.4731506871532956
4801 7.466066704148376 1.9058305349019937 3.8109339793869763
4771 7.950709933201541 0.5307465813644199 10.002117865843598
4776 3.585792738549443 -3.639415074913947 -1.3432957691235607
4803 6.055649310971922 6.04429788712655 0.8545837849746596
5026 -0.7962928720082681 7.67456242888374 4.230222775833977
5029 -1.8337699297941246 -3.718814008146359 1.9688778911665537
5061 -13.85185008103088 2.243796185712801 -8.472110994883806
5025 0.02278133684854184 0.9230096784936879 6.881087366657777
4772 -10.639465840823432 13.199072374020359 -0.7377863091962529
5057 -7.930251810785848 1.8893770994892989 -7.814378945482602
5032 -3.9197631983660735 3.711718986145514 -3.1663676263749942
5059 6.140160761270385 8.588664251030652 0.4667076395003291
5027 8.937113825782736 8.566019029248311 3.752636290484313
5028 1.646232547092624 0.5985578649550204 -0.5524893683336847
4813 -0.3645805925111625 -0.7206437137964464 10.37845326664725
4809 -0.781869246516797 6.322535093016601 2.5304087725119224
5030 -3.17889233710035 -2.013595195353915 4.91344440832595
4807 6.037458526587039 -3.64689394397831 -4.241008456519663
4775 -1.063300939259086 -1.4629544612606975 -0.241987423134088
4779 3.8577875587180226 -4.33251883727652 2.57927491757683
4780 -4.49718901503627 -3.6078218380223173 6.212487272360047
4811 -2.0027262438033007 6.128713775241841 -0.7324868982765426
5033 -0.4839975605648196 -1.780558603558965 -1.0819615770121844
5034 4.820790733885865 3.158741329954023 -2.3585561318608788
5065 -10.830718499265567 -1.2394035014105511 1.533501505479291
5031 6.838525102940365 7.825733602802055 -1.9051889779430176
5035 4.496582255523831 -0.9727657579691112 7.933027993868355
5037 7.189859441656712 5.210978425577383 0.3018237996083194
5067 7.447190299145679 -6.242499998997775 1.7458077196509116
4784 2.9462725785728474 -0.5109930904079979 -2.6293794446398606
5069 2.2392783858769683 -2.6825605954077814 -0.808831911195503
4781 6.456738772277907 -0.6263719466685456 -0.11239007329507018
4782 -3.874295473738858 -0.993127751557328 -1.4915529564791792
4785 3.6327875495167703 5.50693178519689 -3.0565607717321535
5041 -1.3187326114094429 8.110283764278908 6.297448736478607
4783 3.0561047439123463 3.946612504419855 6.96992487948441
4788 6.7086663835282145 -0.0967138425708646 -3.7596504229197976
4815 5.780318799781244 2.73083867090396 -1.7526334808980246
4819 -0.9835915487059286 -0.5348829543639946 -3.007880587868841
5038 2.345629232965135 3.8307531779272543 1.5010957240252303
5073 0.6891526728533648 -0.46978725820972217 -0.8403644311363497
5071 1.5722253650233575 -2.397351444030858 -1.76295861369229
5042 3.0180311320097 4.004153022291375 0.384929357499237
5075 -2.2534877908498863 -5.2211899905410695 -0.17031382109125628
5044 -5.704176590181858 -0.9122344455788323 3.942954055564695
4787 -6.687775944023426 -5.374825117372831 4.93368494134609
4825 5.254833736348912 -0.594240434337736 -2.3133620774209294
4793 2.1309379938521635 1.6591010803628474 -6.00869228113854
4791 -5.870440908057177 0.9829870875411494 1.6940064889790882
4792 2.6887741119852513 -0.9443169035476328 5.377839242821757
4796 2.4269019511035568 -9.190088309787523 -3.643000618352831
4823 0.7188839988222039 -3.397141190476846 -1.581048479429083
5045 3.7569536674847512 1.8694681939216087 2.4148216387114423
5046 0.3958204040819689 -4.497883079173093 5.016310280765804
5049 -0.6078835084657546 1.3070949584579556 4.925873627532978
5077 5.298959432753577 -7.037552180065968 -0.1836678950846105
5081 -1.994017719320454 7.449927534813395 3.1423881662148623
5048 -1.9514243906643787 -3.8703293623732717 3.1828179086498283
5079 -5.967087162313194 -3.928270539605241 -6.929855820781715
5047 5.280243514554459 4.745111286959162 -2.4467687141618493
5052 -2.0028466250794925 -1.559145134107007 6.005560729164915
4798 -0.5468060844054589 6.388834425985583 -6.053880701068239
4794 -0.0951247484444544 -2.73240098787105 -2.0562768273317915
4795 -3.2192033268672 1.5539518562406958 2.7785089363743403
4799 0.8009832219909078 -3.0977063079386875 0.6418865069082668
4800 -2.847320690977373 0.42752149917256066 0.3274828819044049
4827 3.60954692228282 1.3646565499142451 -9.647992772418487
4831 -3.1843846911787375 -3.3093269880691842 7.3326821947679495
5050 0.6438933740846906 1.0576680410160486 4.372562913443444
5053 2.456696075570991 -2.381016126697295 -4.114209047811926
5054 -1.3128620425838495 2.5968238936062455 1.5573470072914009
5085 2.160600831283637 -3.7522314003318993 0.6443318590462501
5051 4.279572175150325 2.8667053692887055 1.7860762728319346
5087 7.283725633115579 5.638585968004239 2.20328242178666
5056 -2.1077820515718035 -0.1836820131718424 0.33960524849019147
5055 2.5783441536330205 7.3642028535844 0.09482658284281723
4802 -1.3349933579808801 -2.0454775267924084 -6.794883908197214
4837 -2.2145286659790235 1.2213299166833356 5.80536371203077
4808 0.581668022938198 5.1735026242523166 7.108069043644038
5058 -4.012289190607602 -0.7369520168829347 3.529981112493669
4804 -2.08452312090666 -1.1721252610494566 -2.944642351599187
4835 0.30514733484151213 0.43139543112306 5.06802394824899
4840 -6.404481704525263 9.090102726970937 2.2262262060514795
5090 1.1407592741544936 7.34052884689321 -1.4649941036738454
5093 6.176644454733573 6.633703187087087 -6.660370619863246
5089 -0.45115585978469086 2.242740405830937 -0.5255107857203228
4836 -2.3929072128357003 2.372013236242856 -4.574991970088926
5092 -11.094000919506493 1.6320272595480836 -2.420072247340782
5064 4.588131677286527 2.103416505555584 4.284218860929845
5062 -6.015836381493998 -1.437610123993182 6.211145720759513
5096 -1.3895610776122953 2.030478832527293 -2.1418651653135377
5091 -1.7146667308820323 0.24130344497543002 2.9991918303297718
4810 3.1469647225202326 2.0878155864318266 0.5842591894814695
4845 10.470756041813532 -2.232480999568761 -4.775267351526939
4841 2.2739601362502904 -1.5587805889688724 3.7726912472957075
4838 0.8384571258329433 -0.12398729195063353 -2.1268910531238774
4806 2.88153630081102 -8.93287372577692 -6.273426786818121
4839 3.1086347909059846 1.1081415219569597 -5.491174155414325
4812 1.0934469189146885 4.601307138649995 3.3459154250839442
5066 -3.1143297839694193 1.8221562363090105 5.228784192742504
5094 -5.65060401631301 -2.2107272110648166 2.555363353857036
4843 -1.1239779724180987 2.9059962049250463 -0.6802366388471646
4844 0.4130698938246757 -2.756026921515011 -1.2409390830758522
5097 1.0758669746238514 -0.6187006922416544 0.954286135633742
5098 9.518756020316857 0.7019314715366779 0.15935715532794195
4848 7.286957095603913 3.6834312389698365 0.14320689229483563
4816 -0.6119195792727149 -10.900223194248968 -4.294898428766092
5104 -4.195297388617592 0.2524617589103495 1.5423252025723682
5095 5.432465611592502 3.9872430391256346 -3.1189564759347874
5101 0.0934330488669808 -4.666943796551485 5.479278553156302
5068 -3.301098638074914 -0.3187784315874744 1.8410739140491017
4883 6.899392689004734 7.815909056042117 5.067532446749443
4881 -1.220904364093857 1.4288572386253577 7.804287590363741
5070 4.9810263625159035 -0.058114892168864674 -5.334819420163183
4820 7.705832972785568 -8.39810715808721 0.13718653016078985
4847 -2.748023971350956 -1.7243070503375937 0.5780224012753779
4852 -0.7292329342680495 -8.711256338918876 1.0213394768373936
5102 -8.784777171725029 2.34259357096024 -3.7348109375398026
5105 -3.173380761941513 -2.2371265446729427 4.1119642123193545
5106 1.5672324018565873 -2.4264098307315582 4.360444035961903
5074 4.411074895624847 4.760017490835895 -2.168651511071232
4851 -2.1589954603112145 4.909661401898169 -5.468828396929229
5108 7.408169664739195 -3.287706574484968 -1.9861593059241884
5076 0.8320660374461453 0.8112913050337216 8.36546935969477
5103 -4.027446968599524 -1.965886121498058 -0.17892302115047012
5107 7.927533846908195 2.554190446469724 4.460590798587895
4629 9.742083928866895 3.575863644186022 1.166080526750577
4822 3.0238664005955136 -2.805687530607357 1.344625946675024
4631 -3.318413663996307 3.778280929972533 -1.7214688364083437
4889 -0.9782841622886554 0.8064288556123005 1.3206356734860658
4887 -1.1905280112689167 -1.5630231323524464 7.257251851192117
4824 5.210771366935398 -6.690448675438022 -1.717524040941024
4828 -0.15922779931665554 -0.15297776402337018 4.961533250927698
5078 0.13577458332660822 -6.479501987893728 -1.2956830983247085
4855 7.9467312505501235 3.3780973721290404 2.3742465182088215
4856 6.644795483182962 1.5913964176173432 7.072444330035891
4860 1.0154042853472482 3.7142133698078554 3.258917112357218
5109 -5.043329876716139 -11.526602884171904 -3.8234632911487205
5110 6.980860496425791 -0.6268274320524707 -6.542874702193441
5113 -2.354936724288162 5.668561715421424 -0.48888943381666417
5116 1.45080322004674 -3.0082764625402856 4.024953998483236
5112 -4.528584332353031 2.1514934375109847 -0.21098529514506995
5084 3.2827807937816567 -2.454115964145372 -6.089941286225928
5111 -10.79592351047828 0.6569955617028339 -1.038173589477503
4832 -5.139690273317405 2.0556652435249982 2.8523578430925927
5082 -10.64959460584442 -3.4525537162821833 5.930819023686463
5086 0.7523782753666186 -0.8217851240716163 -8.751889314019808
4859 6.224529419799508 -5.822003217988953 2.223563284496147
4863 0.04384224637369849 -7.666986838672744 -4.0355482521446175
4864 0.39649132336967485 -5.736957710672709 -1.6090952224669424
5114 2.9259573062962216 -3.1422725113468672 3.7332537212312538
5117 -7.172249249808506 10.40874367074734 -2.4152722463602787
5118 -1.5241828872884085 3.8997496118369495 1.560596233221366
5120 -2.584966063085416 -11.363980277523176 -3.394946549225964
5115 1.796029883613565 -5.4560787975561995 2.278735706869009
5088 1.3950071351476687 -4.170071030330172 -4.39496642672365
5119 6.871145203676508 2.3769238076111217 -5.491092697678463
4903 1.4935392435620545 4.4180020754972915 -7.0289545631703465
4872 -4.962574389325773 -0.6210612361103176 3.6902303628758863
5122 1.190876506604862 -0.5574025560727225 -4.740235100099584
5128 -2.2047080515319624 11.595969044012 -9.897199892339545
5154 3.289887336324048 -0.9901554781510018 0.1772482494099017
5155 -1.2612458085427298 -4.847132535848576 0.9210232902486709
5157 1.823763655988888 -2.049070755112723 7.715968747687192
5160 1.3734331217994715 -2.274528837922394 2.1847338723784717
5153 -2.0596445768477523 3.885119409682079 -1.7924488072568574
5124 -7.701841782424941 -3.9503933134095996 -1.2869324432710416
5413 1.3468278847016841 0.23672503653419408 0.8427503363388953
5156 10.820574939349038 2.4905919034481645 -4.948957165502771
4867 -5.341004071635508 1.011175328166895 3.2936936488319826
5123 -4.261683818675835 5.034349788192295 -4.544756067806053
5378 -6.193266890129795 -0.6461783688727337 1.860902038030718
5410 4.7231812419881125 8.184768036712091 0.5453837764183601
4876 -5.938788159596378 -2.6585280589674447 0.03383176721313318
4912 1.4085079715555717 7.953139717607707 -1.8324007753506897
4880 -9.088147204392891 -0.32945721413820483 -4.77981321481818
4907 -7.83043891259545 3.606638652288916 -4.957971143407417
5158 4.2992896698521434 3.256381626815253 1.594380309674447
5159 -0.7179438789511386 0.10407358752571305 0.9985520677128145
5126 -2.739011382502282 1.32576813881684 -6.6886479460427415
5130 -4.224000493811383 -9.620538989151202 0.8767377013157334
5132 2.6762859000294883 -4.134188696442726 -2.4933135165893576
5161 2.7289133728150685 3.436709637505671 -6.511026771670637
5163 6.121121856400804 1.485042226283269 -0.6438705173913127
5164 -0.6439399470338423 3.3455943953438014 -0.7396461800279377
5162 4.973495756552189 3.6158672268180285 -0.8220270642081822
5136 -2.6552025556276866 -2.5490901768437273 2.510068164305688
5165 1.0052617827555632 -4.922500211822211 -1.317066568074979
5127 -4.184232497224827 -2.69736173142787 4.0016448616804805
5421 -5.024493136742549 -0.9965934978422315 2.1725805561783518
5168 -3.2305995006484642 -5.6574998889640336 5.520905467620664
5414 4.21406807994881 -6.383543200295293 -0.5318060384531951
4915 0.5585605046664988 8.911236598438148 -0.3954276764680883
4916 3.9514311613081223 -0.5132901653525905 6.154985852571131
5134 -3.4398884017284392 5.922809365756107 -5.261887689706794
5138 -5.866102764627491 -0.09833334835867244 -0.3597863886584961
5140 8.947861876812091 -0.14443189050820024 -3.1076099344527077
5167 1.2048864296897293 0.10159573655138486 3.7290910629083434
5169 13.517029102807607 1.1100664992417593 2.064741901962689
5166 -5.1143064100461775 -4.060867125891524 -6.57442961209496
5170 0.1583856945971128 -1.7082502251844887 0.39362578911106333
5172 3.5484160013473924 6.484736790505615 1.804982296332742
5171 3.3811898015677477 -0.7313304356764195 -2.301472223177841
5422 7.028188839548512 -1.554957348211129 7.2774005340621795
5393 -8.154556007494804 8.696301049917981 1.2459187191196546
5425 8.670780928485533 -0.6279904777352562 -2.2108376261400227
5390 0.8346868905894942 -1.2153112958546528 1.7394867914450414
5394 -2.4422016145625958 6.762388351125493 1.6132853158977813
5389 -6.587230084433253 6.006151537639111 -5.168398551202121
5139 3.7595719707282655 -5.355899229799586 5.201314924903534
4919 0.9200769245324774 -8.949716789504736 -0.7989506079182068
5426 -3.5268824278506297 -1.6040159570350316 0.013746539160869358
5142 5.6679962650656135 -8.82493006631182 1.1866708847306129
5144 -4.266371852465137 0.3475106879324763 -1.69165535107082
5148 -1.920863187115371 -9.33610895507433 -0.9277083321290133
5173 -3.721123236558164 3.0896231668164433 3.4518730938253785
5174 -4.492734424946129 0.39608636763527755 2.5909609946927277
5175 -6.091800505450819 5.379848776233945 3.2557423178422713
5176 -3.934194998443258 -4.098031137171811 -6.537012597429783
5177 4.312502312703931 4.546515800460015 1.6964996790121876
5180 -0.7591212689002669 6.390511889998809 0.5624048838103526
5429 -1.7291799100190344 -3.2663151991287545 -1.5114170720370865
5433 -0.7235591166534288 -1.4943234684735858 -8.284425570215015
5430 2.341121403425841 0.05213754647053717 0.49383504598988126
4891 -3.795102069973177 8.37353558413715 -6.360250211779134
4927 -2.387847144960513 -2.0644825342157134 -2.9306665590151995
4923 -4.622882667066461 -5.637001665154604 -0.9054489105591044
4896 -2.73312793604437 -4.595510599165463 4.072911688196232
5146 -0.04362675518978393 -2.895919879529414 -4.096802655153605
5150 2.1539195910221025 -6.843452191928901 -2.167420789563122
5152 -2.974770388001551 -7.861144772703414 0.5237758049687861
5179 -5.0644223663427 -1.6829323310504842 -2.345919250764412
5181 1.279861056591181 8.813755674820332 0.006547151971128304
5183 4.049724788928417 0.7184838739023541 9.385543586256574
5182 6.924021015047112 3.5661105654796232 16.02972510966243
5437 8.989908313948153 5.28543292071146 -3.5443085558328913
5438 4.494157659352659 -1.9989981677006556 0.5029824975292013
5434 -1.013051474495235 -0.17171642851626828 0.031907828108596624
5184 0.3973946422981829 1.1985977278124613 -1.621223799344822
5151 -3.64459828366415 6.870351798261684 -2.1792531625094753
5178 0.4241569224015776 1.3391060202695975 2.5226882205737673
5405 -4.479036193139368 -1.3239518487250934 3.6760705026936376
5186 0.3655912598577053 -4.888252451100345 -3.764003966163299
5187 6.771242909236452 0.6038817894334407 -0.3815864880817939
5189 -3.7989227464616246 -0.16405579587031952 -3.650374842352038
5192 -2.2282485998379467 0.19690426100233127 5.200091092584723
5219 1.2010164303142934 3.2439389905987714 3.441838882694684
5221 1.9080565905960603 1.9538376626911094 -3.81919627822515
5217 -1.5278870047103055 0.20278921809163677 -1.7477406037207526
5185 3.769756329927343 0.45043566537602586 -1.9028305529243903
5188 3.791209214883178 -5.482452248901035 -0.621239426971833
5445 -8.187931211927365 3.9566530839549183 4.8224103534703255
5473 -0.7741069266339493 4.139547613905424 -5.014872991735619
5441 0.7339652363385163 -4.331871521641973 4.930433105486457
5442 -7.948026176010758 8.733327263080815 -1.5539446534116341
5477 -4.504672554231234 3.6035632300993763 7.665252535491145
4971 -8.91322627709545 -0.873315885213036 1.5815741297490693
4939 0.9578636161310402 3.5922308778196244 2.1320156885432078
4944 1.072447063826207 5.966689273259669 -3.8340220894837116
5191 0.07837276754585376 7.908017337751624 -0.14196595037966836
5223 4.447526092526026 1.098403296305629 2.6360286913545
5190 -1.530441972488857 -1.683937709895374 9.624172219137686
5193 -1.0106921112161746 -9.579922907404377 5.734535553724276
5194 -2.678111382883528 2.554265135232296 -12.195717301353275
5195 -3.7218071001986113 -1.5973355930419204 -0.19703580065803167
5196 4.211658134010733 -1.7466477065730868 -0.6860972468400371
5225 2.559020579033282 6.940081260972441 3.17204118258029
5227 3.847647107979179 1.8320922491761427 4.601556797330458
5481 -2.6461724618617444 -4.732017745179014 0.9237214181342939
5229 2.0052894543866957 -5.46919825238031 5.915967299050632
5485 -0.5545493987903948 0.9060367930042263 -2.5923467633316557
5446 0.716188419125512 3.7901512563963067 -7.943463257709084
5449 10.561342889033009 7.127285791784921 4.166518125087904
5450 -9.151247382438427 -3.8647291111586006 7.881623014498132
4948 -1.5355088432618678 -1.630705110900649 -2.1759156543321327
5197 4.221305812988445 -6.081945544264642 3.138064020145938
5200 -2.1712146166175055 3.45755749277059 -6.792655381875641
4947 2.2150216639475744 -0.5603150022232072 4.913420369271217
4975 -0.07241470379082787 1.061818753534176 4.321839640782657
4943 6.469499603403843 -1.293213664168157 4.427756842559108
5198 -2.300519702003505 0.9928980944072913 -6.153100097311858
5199 -0.6450641842747238 -5.330998201876028 1.0528794306088616
5201 0.6091169084311534 0.4396592566814195 2.9374582360168033
5204 1.1993429029303644 -3.982174366311432 -7.880510439621428
5231 1.854353946719522 10.189469977025798 3.5024217390698094
5233 -11.070758689945473 2.1990005311226013 -2.6944800739144834
5235 -7.652639967391745 3.846956840232994 -6.065129438256106
5202 0.8527611355763625 -5.791899349889798 2.6352698222298185
5457 -0.26437801661206817 -2.743767270296323 -1.6048770539440693
5203 0.39040961717978856 2.29245987611864 2.2805498337736236
5458 -0.7495110220120685 -5.219087943737613 -4.957468538877352
5453 -6.019332883871226 2.1729665610364113 -0.026280606491214012
5489 6.791561707747687 -5.422645030347926 -4.066331909151448
5454 1.635997281352446 12.182704422758405 -1.6280614229993666
5205 -0.6039347658485138 -1.2210441116604884 5.310371495628978
5206 -4.237165970360088 6.244292124839551 5.119412943543857
5207 -4.691953460048672 -1.7130681204239977 0.1035299698646133
5208 0.687012873741494 -0.7412465886587303 3.899191074570505
5209 -5.178832858091175 -3.0097671873456515 -4.665376117370556
5212 2.4394500015659695 1.6279001918847993 0.9185564703013108
5237 -6.467133006661142 2.3273623592604764 -6.663819305737203
5239 -0.939952550323027 10.48741226669793 -0.24568472090129645
5241 4.493124390921746 -0.959600891609307 12.484819930001034
5497 6.57264239341221 4.288903411830246 -1.802154113599344
5493 -3.4528819602768004 -1.2489346444904361 -2.465740627519499
5465 -2.7076402318967565 2.769404045640491 -6.105428263036567
4960 6.534660384965039 -0.7312818753779162 -2.7279672396447148
5210 -0.43748088100332644 3.900353686450529 -3.851716610364883
5211 -8.341326359891275 -0.5780363735211462 0.9700850476041919
5213 7.356958088341432 2.41406395472251 -7.455681271600257
5214 -1.172987589086315 2.676252636864948 1.3048912230057292
5215 -4.925850921927399 8.10549322690989 7.510771151547036
5216 7.433799356767879 -0.005930443479663358 -4.676109079240698
5243 1.3612100234169229 2.4121974611291948 4.567505048457993
5245 -0.2812196292957642 8.380542073711705 2.430847839374025
5247 -7.7657250720477 8.767050191591494 -2.4660944781199716
5469 -0.2101210077800894 7.6159342854776755 5.121195230340259
5501 -4.814408091725965 0.5770495496166492 0.24251490662583297
5466 0.9773366200245853 2.653422985551095 3.9338248415371617
5470 6.534565357199857 9.768461310624911 0.6389728726379855
4968 1.7451591551185963 -4.452588197811769 -0.6582124619489462
5000 2.6735573244302215 -2.948855112428394 -3.624581869534178
4996 16.46190922691715 -6.1443079631491155 -1.1170091643685922
5218 0.6086113168443767 -0.4363441593922636 -0.4947931838939812
5224 -6.587627523375396 1.0552902487033804 -6.238368489080895
5250 -12.501754215336986 -2.4713495904523435 2.276587938223143
5251 -2.522648724699844 3.153015132685777 3.8438004224443154
5253 1.956087412556293 -7.963754311894514 4.838124500772897
5256 -3.951330529961296 1.370661038861633 -1.2254889024669469
5220 -3.2044996352057162 7.425503042596579 1.2902623866380727
5249 9.748945820680358 3.6997902043646165 0.6200665920743681
5509 2.7489725394137756 1.9722327777844266 7.031756411333252
5474 0.3879473283997174 -5.8072822512435405 0.4845428217676959
5506 -7.265320056147513 2.0635814965115586 -1.4000925895975649
5505 1.8809832802885067 1.692830848166389 3.327970640625425
5003 -1.5897999868796309 -3.0067194992370907 -2.4143587111220475
4976 4.57091747206698 4.896742017413002 -2.244263745387137
5254 -2.496961238144556 8.21390958800621 -2.7993934450169657
5255 0.9494337145260592 3.110744660753885 0.2083862330753196
5222 -4.99625008155029 1.6513077246640468 -2.928942209795462
5226 0.5810907376327958 -7.381607539475606 5.158698688008359
5228 -6.493099810788389 -6.554079819598092 3.423594841637462
5257 3.293713148901628 -0.23241294324399603 -5.091687968521111
5258 -0.7975671449621308 -2.937296827624501 2.304917672248379
5259 -0.9131124736559542 -1.4127902037911906 5.197558780493455
5260 -9.296181696509839 0.11322176041987322 1.9738776588956701
5478 7.302932018809971 -0.6012234751205877 -2.031446394177668
5513 -3.468489840577589 -2.243443101828932 -3.1682476735775196
5264 -2.886427604083572 -9.494720173995699 0.6431449239652682
5482 2.896146218868806 -1.1919745604417542 -5.017493623297582
5232 2.5688620435505958 -4.069643228524513 -3.9436646893153235
5517 -6.966013366754017 -2.554518516152788 -5.742424245903955
5261 0.4882301752917775 4.896258698391015 -4.429594307117012
5012 3.1513683361735407 -10.235107090565378 -2.334497813667687
5011 0.18766182182205296 -3.243084821107677 6.772062710229987
5007 -0.7828530938393885 -10.269917274229982 2.582386921995802
4980 -5.6343795363775655 2.5315538770583252 -1.9301983415891435
5230 -5.503906861212605 1.675986241747169 -2.9386931859320224
5234 1.4537486077414874 -1.3568685454916383 2.0781106651247754
5236 3.4970870458381507 -6.678019568499535 1.6819775853953467
5262 -4.30926918089412 -1.3764050582859522 5.411580495924074
5263 0.8269718843267275 -1.0357633005681925 -1.5457312624243065
5265 2.465171832083641 -2.3472647897928947 -1.8086413471693805
5266 -7.585127434613773 -9.615520719616164 8.826886362331642
5267 -1.4898816526439216 0.2532121844574969 -0.9119036752487065
5268 3.9771820950982537 -9.09592217918223 2.613666512765466
5490 -1.4314146071977245 1.0929417364462406 3.474799367203599
5522 -6.294929083385338 -1.857400998523997 -7.348946122821185
5518 0.36826941554264736 2.382158210510898 4.235395206718401
5486 8.164774736946153 5.412868149187282 4.043362319242546
5521 1.0451012898708005 -1.9831212649004497 6.301581790830918
4988 -1.200317500067883 -0.9821619056585404 -0.15414809453386152
5020 7.498954339869246 5.055219271446616 -5.495095466964742
5238 -6.807727679534216 -0.4770846820368594 0.5767145257947862
5240 2.7612197028417844 2.7601029966706943 -3.3305286572144945
5244 -5.877998963333398 0.5456965633260629 0.2785187049123696
5269 7.523684660628653 -4.813694991390197 0.16631088946419648
5270 -1.5543954757281118 -1.6119046606262026 -4.789595031915086
5271 -3.205804946710235 7.045194375024844 0.27388099789009146
5272 -2.8109249233678484 -0.4485748037393688 0.818072480985869
5273 -6.013964270831587 -4.4256253609069764 -4.885432525522714
5276 -5.197228329909572 1.669710356380116 0.3375038161984079
5494 6.4181213173260065 -6.81889959129672 0.15719010794037758
5526 -2.7752945586554185 2.9652802349213343 8.110678180256771
5529 -3.4151425458979148 2.7201827484805317 3.3076655539837616
5252 1.8481036119672074 -5.133584869833232 1.0468040864832477
5242 -3.5757897325266916 3.101694239273939 -0.7080247706821693
5246 -1.2636651905217755 3.139736377775027 -3.8565719584046914
5248 -0.643167936290292 4.809047646380794 -0.6362201866735518
5274 8.251756728700146 -8.822489275538468 4.150322528421855
5275 3.1575849028748046 3.16163108221243 -9.928946283041283
5277 7.397225988030831 -2.890120786379417 7.913288930482843
5278 -0.04319401922849622 1.2452950247569443 9.389141919346619
5279 2.7580777062757456 3.824263284712402 -8.081371003353771
5280 -6.146336751633613 5.564569907194576 -2.0761553653942846
5533 4.906197361365322 3.8272168589994346 -0.26566280407398407
5502 6.603287302020829 -1.935074134307053 4.251038384237035
5534 4.020336508253724 3.6844526913327127 -0.04729146437244401
5283 -0.08930149016845175 -0.4233581652194987 -4.087380376002865
5282 2.0721866322678157 6.609328083496307 -6.545114697275379
5285 -9.42967138922762 -5.374623121653965 -5.660472327854119
5288 -2.2883785767306497 -13.373509189643414 -6.122091604098922
5315 -0.2650268725109503 6.045646318393769 9.93604067905476
5317 -6.600542433011041 -2.896614026287201 -2.8421347795387266
5284 -5.536762240664063 0.04682573149172624 0.6253269638334633
5313 0.9474341055513089 -6.256068849077096 7.626851779297128
5281 6.377113330918609 2.3070768590650883 -1.155587318955509
5538 6.955736096732353 6.188270264214055 -3.378548716351487
5573 -5.194937934371099 2.3717616466337916 -0.14778548342542172
5319 5.984597963525504 -12.257710596365028 2.814244478204742
5537 -7.145975073241564 8.599061373476614 -0.4689468378426573
5569 -5.81517933958459 2.716338000869767 -9.608004313816954
5541 -4.346473290014858 6.399434710601186 0.374591934232021
5036 -5.568600846366343 -0.20037030922127433 6.60065370776716
5063 6.395962246504301 6.809048755990617 4.957904505291698
5040 5.072966765628957 5.258495307738285 -5.677028581162559
5286 4.230610515935257 0.8282127954798362 0.6055135351265823
5542 0.4426523977945162 -0.6654626735167544 1.0570323364705765
5287 -2.6137349920346282 8.661167883645316 2.742581348678978
5289 2.268624577153634 -2.0927809370752892 -11.340077088775406
5290 -2.611253319594715 1.352338153008527 -0.22039501207727633
5291 3.8457970945564557 -0.3083986713703605 4.430340587262009
5292 -2.0545933955580877 -2.829565273535278 7.28306967547108
5321 -0.20458438582667138 -6.608007087613575 12.36403498685226
5323 1.7305055800802394 -0.038433132201129164 5.69704212787418
5546 0.20082747683881744 0.9493219601163543 -6.982287153399346
5577 0.8373528367344083 4.233711511526534 -1.7932775459084684
5581 2.2509541913893343 -2.759768029947362 -3.854680108975623
5296 -2.018286266159736 2.6619200784891923 -2.8264996005381535
5325 9.178922944975687 -2.0197162523568473 -3.5198733721807325
5293 0.1764938150488039 -0.8873007170419313 -8.557771038702496
5549 -1.2385699899515585 6.917795092296022 -1.3650656841005633
5043 -0.8479894515304033 -3.5162654021288424 -3.184120791338515
5039 -0.8967205134538566 -5.49833270071317 -0.007009418549447744
5294 -3.561864673427927 -0.15612242019506886 5.428496894820787
5295 -1.7850394042691635 7.59372869890388 4.053669737284948
5297 2.67691902553403 1.176820306452061 5.036603548369894
5299 -1.473083247282262 5.634702417140169 2.4198876999541308
5300 0.6057660818768815 10.035843364070784 -2.966944239506174
5327 -3.259530696510124 -0.5269293314770974 -4.416844639827769
5329 -7.524771858784664 -4.825295450902513 3.491511000098382
5331 4.045061651338349 6.336266561902145 -3.385116227363565
5298 3.993368795863426 2.8584322001121882 -1.285987269454381
5585 -3.0449405919575967 -3.2715023531243443 -1.2153862736303493
5553 8.091002003491676 0.2674587470111602 2.05025448405337
5301 -0.9567484932927528 0.5513208100697716 4.871098746236479
5302 0.6866862574428331 1.5271635969341713 -1.997838531616557
5303 1.0563571925632995 -8.756915311150793 2.442181039568958
5304 -2.7788782436414188 0.3993800727280386 2.3802951199200857
5305 5.505334880615373 9.034148105415982 -2.905710911310357
5308 5.616211307530022 -3.372665069122356 -4.548148216135023
5333 4.548673129349329 -0.9931262448093362 11.212926587898355
5335 -7.900142500737488 0.007024843438704201 -0.3228122969305294
5337 -1.7227145952631981 1.2593181083378426 10.447440765573637
5558 -1.2388931557321254 -3.8453936644423745 -3.075752442706844
5561 0.5289752455025701 7.233556458083995 -3.300475585642608
5589 -1.427082703920332 5.875194617025371 -2.0340104339988696
5593 10.268530512133351 -0.22334591283466657 1.0352127550969228
5083 -2.202197782738278 1.5703639681409518 -1.0536973157600702
5307 3.3237168134230832 3.5212166818758965 2.2284314745286835
5306 -7.522097222922154 5.9524624619690085 -5.146148010402253
5309 3.6980422082681774 5.662227881499043 -8.15237942502719
5310 2.0046860004130473 0.22830262020723524 1.8339279883707287
5311 -2.4784387400718413 -2.3973842277634523 -4.450516097479199
5312 2.5026228077454133 -5.318618156763941 -1.8994663900191264
5339 -5.289343080841173 -2.3115760725922296 -1.621808084405093
5341 -2.798948153899344 -7.005296441705702 -5.284718896415846
5343 11.04940921913977 -0.1364264123627143 0.385542878611206
5565 1.6989029541662248 -1.3132065532596862 -1.2179035370734208
5562 0.9431730022581635 -1.0873822131171855 -1.6430004952294848
5060 -0.676942705398737 -3.297167236886831 -1.0357384775210237
5125 -2.492854809505995 7.691907834362295 6.877776019344074
5121 0.3838059547450626 -2.147140896228458 -2.1321193052619396
5314 3.435174723059674 2.2526249998044743 -2.1637712676886274
5320 -5.1454692269098325 -4.152738757379485 0.40054326076287444
5316 -2.6096951320317507 -1.8031314350331578 -3.289523222284963
5346 -1.448663082732855 0.2071092546542602 7.998116601243976
5347 3.2362103737421273 -3.4048349177233765 8.408187081510915
5349 -0.7954902830734593 9.292217340800992 2.8335334617001693
5352 2.963151524330276 3.766328773212326 -3.490491489879862
5348 -0.15748732342215505 1.7199692473994923 -2.5052263878216627
5345 1.436902031101968 0.46300470682937617 8.290494813784052
5605 6.3344266518621355 -4.420720084715201 5.302351000796977
5377 -8.817434126483958 -1.7335291053278346 8.084643761374847
5602 2.760255702213427 -4.677667685397806 2.3281083393145745
5318 1.8466705641080188 -3.7890757932347334 6.981799834148717
5381 2.514241654254647 2.1766877082001397 0.3840023773272
4871 -3.0945027501233104 2.712393827357258 -6.598712094210316
4875 -0.5074152978077647 5.612008013845874 4.405389763920031
5100 -12.200321082127026 -3.3824980051106612 1.6612090922763436
5072 0.03286613476690353 0.7734048280612619 -1.0184538971293724
5129 -3.086171700207211 -0.18327041295068094 1.0859691298705616
5131 -0.1980273967845652 -2.6285242177356865 0.6296329377744999
5099 -4.409471315780191 -1.7588629079761633 2.318573471313342
5324 -3.3276316881378003 -2.341680916007095 -0.3406729622867081
5578 -0.28478585490295066 -4.072638716038538 2.1962304159675052
5350 2.1692726063744976 -1.8862688472159859 -3.437219169387437
5322 -1.8627655151023592 -3.6116960635132007 -5.162333051881313
5351 0.8460346033923668 5.921246197120925 -2.435363611241977
5353 -1.4153938376538986 5.934905294646726 -1.1656284079462758
5354 -2.6663821624504296 -0.7160697570262149 -1.5872650107774664
5355 -4.771649516082655 0.33954067469146754 0.6683762475977807
5356 -8.52045639848108 -0.19268299281519397 7.059627907336652
5574 -0.2940984711231957 -5.7877661056102205 -10.379441682365316
5328 0.6889745097228721 4.72805114350546 -8.059231592808429
5360 -5.746412467225102 6.804156114571291 0.22770212342142637
5613 2.0563426270299563 3.2937613044465177 0.1925766922695441
4879 4.79358259338844 0.6433323657908825 1.8522118708922688
5133 0.8372728768235149 -4.932180491704415 -1.9046272129817188
5135 5.0865767602638154 3.628450275160817 1.129464499859105
5357 -1.9885841291779867 2.0872298999160703 6.7498945584881875
5137 1.174178463650828 1.3025246002158488 0.5608007916556051
5332 -2.90060193909994 -0.10905715881353648 -0.17142381733796794
5586 -2.6454882166707927 1.0703550033282228 2.827965831333753
5326 -7.007257071722633 -2.7796502337632925 1.6484873742618087
5330 -0.6274018554378542 -4.768718533381232 -2.8124521376511
5358 3.568752290870614 -4.311987163311545 4.22279347494499
5359 4.7729639164007045 3.2555856891027077 1.0219238107930535
5361 3.8412213414640832 5.848635559920612 7.086049554972935
5364 -0.8082260077482989 0.26270763058128754 -0.760243874110129
5362 1.7112332190012025 7.6174481209053475 2.582135688690049
5363 0.9693930843065176 -5.665297244403851 -2.551150521203159
5618 6.263652521460717 4.508181414255412 2.3301841630145197
5582 -7.529866010080084 4.466674290365129 5.067493828415728
5080 0.057659897382968145 0.2832265123561004 4.597208105558329
5143 -2.041512497506084 4.554075700636652 -0.19016487408992896
5145 -1.7985278825159818 6.751406869110729 -3.377204877192937
5141 -0.9068434237706436 -0.2998281546409943 1.938928484050435
5401 3.294432355390001 2.3569260186346686 -5.201246574149574
5334 4.933328375852947 -2.415169139419693 -2.4307144486972567
5336 5.837169844736449 -1.4857296153751476 -3.5256002498131993
5340 5.089483450004144 3.804052249992546 2.0616482199272217
5365 9.10813591919769 -0.5987117987026322 2.3996719132980955
5366 -3.9922791198091923 4.339063961405152 4.257268343715708
5367 2.5365140597965734 -0.5518108138631149 -2.5942294684033986
5368 0.7563303708472546 3.9936793103498673 2.7283529394687203
5369 1.282496363622912 -3.8756742052404145 -6.563066790796271
5372 -1.907247597486852 -4.805110280327471 3.169548024960762
5625 -2.1520888339618853 -11.46069790690406 4.464500909970298
5621 2.130877147997804 -0.06711265448786387 -3.187018738134028
5590 -1.0803364754368623 1.150457014563128 2.51710193010094
5622 -1.8909517321704092 -0.6421929975426196 3.3167856888713763
5147 -3.6426420740652063 4.231386352106109 1.1172332793579587
5149 6.098003158818621 -1.5658185582304684 -1.6912462206542682
5338 4.498057072382506 0.8409903334761984 -8.661809669827491
5342 6.690699291451306 5.184797676234568 3.0254861035509544
5344 -0.982020571142118 -2.519164360293018 0.4772772529818154
5370 2.5805190479921283 5.6219516874908555 -1.9712846088420357
5371 -1.0702205439092856 -5.410076223841479 -2.5789583715857387
5373 2.7539820460895186 -9.347635508698803 -2.7502791200743015
5374 -6.215728402380804 8.945866771988646 4.483956378344013
5375 -3.3573861568421055 -1.1014284139352637 -4.865164633268443
5376 7.853806581882692 -2.2097491098243 -2.7556419360401625
5594 2.097454958081601 -8.085084209901797 0.8440619277023081
5630 -2.7090876739566663 -3.342343800617341 -1.210491747847821
5409 -3.073082341753842 6.572827585203044 0.8510804295074498
5382 -1.2716204071345079 -6.138994395987449 -7.096206717084591
5384 -2.6972471167838856 -2.0827132735980074 -4.45004180764905
5411 -6.363722152451474 -6.364457732497369 6.600383239522152
5416 -4.857996321326661 0.9989143794164406 -6.708358641521505
5634 8.706449815856939 8.191604103027345 -0.4054122122060636
5669 3.4540176234384994 3.792797413963371 10.764576234695987
5412 4.326953709333573 5.339490473246596 -8.620709228020951
5380 -4.851799604472253 5.719974117295573 -1.2491359766341028
5636 -0.31700406155653776 7.638119213985825 1.0115085069664411
5666 2.093927827166695 2.314207758968985 4.243635943939826
5668 6.534066577863661 -0.9085150692400872 3.6500496700661698
5637 2.580783726151357 0.29874789716788086 2.5995789684881463
5672 -0.5724582151351338 5.528682741525814 -2.3713298932834945
5415 9.660591463484606 1.887586210886638 -1.5421431803454373
5665 -0.7327911185870805 1.8856754224249062 -2.0369395942835435
5667 0.7336998249910525 -2.612255827142012 -0.45303657351867765
5385 2.8264636874235065 5.247836131224671 3.4563741594034436
5386 -3.6798451611166594 9.013547183174094 3.965356655758365
5417 -6.350359716643504 1.7962644922329472 -2.5499592488049183
5418 -7.358804256567516 0.752326482566783 -1.3622192273608111
5670 -12.399111001330109 2.919332690817849 3.3264615018749586
5638 4.909022531161963 7.811162006922177 -4.731960003499488
5388 -8.52236064693387 -1.2483666569284733 0.7371839640836745
5419 -5.273694209513789 -1.6154424281772384 5.296938774627365
5642 0.9570377980197454 1.494838745069622 -5.615097287357701
5673 2.922413975458835 0.26877643426637216 2.6327285620291323
5420 -4.428392693495842 1.887941672349681 -6.593876454446834
5677 0.5628983640874687 -2.4704622654831696 -8.965417688925632
5643 0.48324017134089947 -10.682743071661768 6.138080187062139
5424 -3.7869292321290495 -0.31762297294954484 1.8571049925071612
5674 -2.989859778108405 -5.2004499128284385 0.2599765923882819
5676 -2.4806131370025106 3.909574878852495 2.657098799191541
5644 5.40969052157173 -2.2136207939103314 2.257605496357142
5383 3.433013053023634 1.3066901630943848 -0.8479599929449536
5671 0.14990033100583255 1.0385960414924476 -2.4984001705451635
5392 -4.155785962741797 -1.0411913749717638 1.2597874300397116
5648 -2.6064369329304675 -2.7866758609922537 -4.315368062733176
5396 -0.7716485946625423 7.815781676060814 -1.0834466438863113
5423 -7.311341648266205 -0.8639880063921744 0.82658286736981
5646 1.4752779202612003 6.164147103523674 2.742685768692935
5650 -0.5423375953484966 -11.471076959052278 -9.354566391416881
5681 2.5163578761587333 -4.506558063819129 0.635303679586309
5682 3.741018111646042 -2.011129515868142 0.18316366348947222
5683 2.8010198628052594 4.018686095675873 -5.502374521162781
5427 -2.466888897892657 5.208353018860456 -1.0087816029066763
5428 1.2876210691583094 4.134137026315286 1.6922259379202689
5679 1.2547925648353495 -10.126356068699456 4.386754823589931
5652 -1.9308101321263895 -1.730458639353569 -0.0793398614595095
5391 -0.8386809176143188 -4.738779223677423 2.056406881044294
5678 -4.647813540455833 4.083124899541868 3.9526417862094356
5680 -1.5570274256537653 -2.749030378962608 -4.969560100608898
5398 1.4375571369420619 -5.162659950776465 -3.309815449095369
5397 11.10058453777836 -5.162928910801479 4.849732850642179
5400 3.047793679907925 -3.425147906022754 9.763390441694979
5404 -0.5750177806582567 -7.641498602948127 2.218134204967257
5431 1.1845289907855572 -3.2761859246327485 -3.7452787521082813
5432 8.06727069701833 -0.4054427610792001 -3.3870514643054914
5436 -2.21155225687484 -1.8684316804674679 7.208425794884627
5654 0.14144953580698283 6.237181986858747 -0.8742227693465875
5685 -3.2615938177166446 -5.026484807418702 0.4588260894467183
5686 -4.153389117188153 1.6121513111524508 1.5551009080660034
5689 10.2748088186117 0.37284516250635635 2.7043253689228735
5692 -6.694260816195775 -1.949977287936081 7.764728647861509
5687 -5.470949772654244 3.15152266378997 1.169005271769977
5660 1.9274861341003346 -2.6037258564003776 4.9555019086568635
5656 4.159236500617248 -1.8028001614886404 -2.714634571035267
5655 0.441400647642924 -7.130117329887353 9.114952561570925
5399 -0.7500374591957356 3.5249740046949767 -2.2819744747494783
5688 -0.48604341684806374 -3.519092490141304 2.8419158781547185
5657 2.900118271841327 -7.139398348857787 -1.2538046159859075
5402 -6.895481437262179 0.2804559980677951 -2.4624564716939386
5406 -2.2153766361105234 -2.0447236609031094 -1.738024801555282
5658 7.091619169853806 1.9482753616849466 8.320551507305066
5408 -7.517535776050116 1.8322607409416654 -3.8608101196184768
5435 -3.7948223798915324 1.5059831929904257 1.5024412338494588
5439 -2.8943491693969783 -0.7792534854548572 0.31290081329030744
5440 7.475600397362687 -1.000440206625864 1.93613405977384
5662 0.2541320256977582 -4.423845147690149 0.8900927281031603
5693 4.019713975443476 -0.49289426251120494 -9.394095213007201
5694 -2.45641261337834 -4.194715987581704 5.229636207980877
5664 1.8503638882678384 -2.2293788920153275 1.4961947699451972
5696 1.367766757551616 0.7020757199554764 6.321120455811418
5695 -0.7095855055017778 0.5114164876241355 0.20199728331920264
5663 2.1384889461427035 1.5036954007177636 0.31753711234699217
5659 3.2938627860689578 2.3486876481191934 2.785311996843175
5443 3.274006475853378 -4.117138753155724 -1.6773188314065643
5448 5.466728198072622 -0.3588623935422276 3.7948089144266706
5475 3.306394461937683 -6.477558312568674 4.618408054676005
5698 4.736527707690485 0.17313960731276604 -9.484816263154515
5701 -8.983381381414997 0.5149387509906583 -0.41223501316552696
5733 -2.9031503814854123 -6.954551263479476 5.627724844863192
5444 -2.6532765964742846 -2.189553014421798 -8.165726599821571
5697 -1.60407033674708 -2.07133730498693 -1.853814727809569
5729 3.861737445073825 6.153564195309137 -0.6018318830873404
5704 -6.071123893601124 1.1141545914114817 7.740492267769695
5699 -4.251784220689816 -1.2349056916346353 1.8214367505690334
5731 -2.129560231493312 2.335424918323784 -3.404827814849201
5447 -2.1109092627611488 -1.5819081828179575 -1.129131308735328
5703 0.8404695011431353 0.5142515793095451 -10.968528893863802
5700 -1.2974457653348022 -1.9503279330672996 -4.243981199998623
5479 -2.6874771287387844 4.603363378860076 8.450879330298195
5702 1.5429145365842016 12.127286469065622 7.505607614861632
5451 8.6885757872978 -1.1530047211450376 2.373384417896259
5452 4.255030686551624 -2.0789838186483913 3.4369613348925525
5483 2.623862349323299 -0.5281708202988675 8.58982693414412
5705 -1.525437964359636 0.8495076263265822 2.289708650082277
5706 0.3169373739857827 0.6723776488274702 2.769369890745695
5737 -0.7408729571583947 -3.141219474967173 5.08977628877376
5707 6.656876137229088 3.2547112928410407 3.227260864368475
5708 -5.875424554450719 -0.2686855963385954 -6.245136486565023
5735 11.041872832670926 -3.2851373767884438 -0.7338778231643174
5456 2.2030220237848432 -5.86037389296604 1.1865280707262966
5709 3.4170842651638185 -6.380317395761839 2.0448372828491626
5741 -0.42859603742759306 2.6741908860479113 -4.9430233103566925
5712 10.158451000964607 1.848969541233066 3.3802555388564017
5739 -0.4483058826532372 -4.200429967141976 3.4162710296215373
5684 7.314623290182425 -4.364852654418715 6.612187489556087
5455 5.894666196334305 3.89141494975362 -2.4400023923672975
5459 7.038357116334624 -7.887726121733015 -5.921336998820511
5460 1.9450734278155288 -5.933406835105054 -5.400332851246627
5487 3.976839432391896 8.821206641245972 5.709964717275828
5710 -4.214944276449941 3.5496734489162662 -2.423434055052137
5713 -11.211286726494354 1.5374837558069911 -10.22859616379466
5745 -9.577648631885442 1.7960327820607922 -4.407930448464889
5491 3.3873915972864785 1.2301131644624828 2.797839130210229
5716 1.188243933064344 -10.476117221987323 1.3011464945229922
5747 6.006368380482464 0.995742677783413 -4.382767361849801
5743 4.971849382939521 -0.7121439419137527 0.6529668889602144
5714 -5.151501492231658 -4.627951961359168 -12.038048868234807
5711 -4.264199482965415 1.8262701965296424 -2.801293903090255
5715 -0.04683866343614987 -6.7591459006919 -1.0389517315724335
5462 -8.337918648140217 1.1824461834132896 -1.8444601558205314
5461 -0.5423477620412791 -2.198514782279898 0.1389687578163962
5463 -1.5411408485033349 -6.976371272747502 0.7739690005884554
5464 -3.2447671339444395 -2.002149148379666 -2.0555500627197087
5495 1.347191863852805 8.24028746590254 -3.03557269287111
5717 -4.412426080792383 -1.0855073042618253 1.4543824492312512
5718 1.840395760057199 -9.348135386359925 7.785489569717389
5721 2.438931722426524 1.2504313050630322 -0.09984541299799898
5749 -5.027516572019152 -1.696867613766127 -3.411244607988603
5753 -4.71232081577386 -0.16125973355471507 -11.149181794961093
5468 1.8329125892619624 1.2495989828324143 -6.065081777109358
5719 -4.024757920899572 2.3824445775745726 -3.1462505252936848
5720 -1.9063678370749022 -1.859784591553344 -9.507080663200266
5751 -10.202130978962352 1.4211366726586434 -8.247781600808706
5724 3.7546842280781374 3.8721074281055268 -8.061257649659145
5690 2.1246794925827297 -0.08262947900253051 -5.197525175733944
5467 -8.185887787982093 1.2261764724885216 6.542829623381053
5499 -2.5943596304639294 -1.4318158131156518 -0.02972554529835911
5471 5.506176128668836 0.8503056224175568 4.58708082548817
5472 3.102877918615023 1.2357787690986062 6.851557082680001
5503 4.785611265732174 1.0186663548148196 2.3846674044641483
5722 6.289730001459746 0.06452779604256068 -7.5396108059709315
5725 1.20596951289693 6.8413907417325905 -15.155493013191574
5726 -8.251605671556993 0.1776824368531559 0.863290111575886
5757 7.266387560404454 -11.31346499804333 -2.139941600030069
5727 -2.35727704701664 1.8189089305725372 6.57209651842839
5723 10.240661985215384 4.932579935693407 -0.7129399998907423
5759 -3.942197822384423 -1.0274399169922064 1.5688390932156815
5755 2.3771296121826513 1.6102312148622353 -5.222371060039018
5728 3.1955445727464893 1.5590831651301407 5.219163121407213
5480 1.2322431715481599 3.1361332656145104 2.0432481957455693
5507 -0.39951627361897013 -6.953124672876349 1.4374071341190338
5512 12.376886298534208 -7.373172379739613 -5.738300638854755
5730 -1.2044587644031612 -5.999416306760135 0.39436583992189495
5762 -2.514260508123682 -6.399320672374335 -7.823035476470117
5765 -4.129711111885523 0.010268017532798067 -6.9121864912008295
5508 -1.841823418211526 -5.499155015533002 3.514366687982443
5476 -2.408330484470375 1.6224842745993244 -2.062826224723349
5736 1.0499610524961505 -4.597974475507167 -3.6416877920861395
5768 5.501414684942945 4.893030559929669 -3.316288682165212
5764 8.25578622501735 8.543196206457452 -1.784660730649418
5763 1.3375083646525696 0.1308831317744625 -6.665293133784348
5732 0.20884151535310488 -2.5169579134536644 0.31379350177491827
5761 0.7596364569174382 4.423549410029529 -1.316956359698635
5514 -5.537166012106819 0.33810085908317317 5.250647663644696
5511 -8.95713497152843 3.35818633105279 2.539717891307949
5510 1.0844698039291476 -3.65211908323843 2.116057025337358
5734 1.9549148671946766 3.228503380146197 -0.8871644595511279
5767 -2.2508899979685135 7.671688953375355 3.870956960156301
5766 -3.9392389490312008 -3.2022294249372196 6.937921605298591
5484 3.399430223259611 -1.1553913004684533 5.380798777748258
5515 1.0136491243256538 -2.534965806692928 0.4232700467208763
5516 -1.3419611275712588 2.294939384577816 9.830337914832468
5738 5.92869401456137 -8.40509183425002 -0.2391496593600009
5769 5.7660112111476005 0.8958136276583674 6.3510001281396935
5770 4.670325909211519 -3.2074141972100922 -4.774549985490966
5771 -0.08064407496610979 1.0169630526256237 -0.8036344943559627
5488 -0.5090068762738903 5.053575607504001 -8.593750451632536
5744 2.8460889162636107 -1.2080698733349051 7.135708356224415
5740 -3.7738929921489537 -0.10482101577246275 -1.7840579200520612
5773 2.3118942622206458 0.6898769571933235 -2.2182340179511777
5520 -1.5358078399059854 -5.896831958098433 -12.203408573003376
5776 0.9770116549170226 1.2379709567408355 -5.441308246875241
5492 -6.069677755306702 6.057256887875361 1.3432172220187304
5519 0.6215988143491303 4.513002959275723 -7.632567853301545
5524 4.059564520759881 -6.783102826883443 -1.4024040339965655
5742 9.505061114893499 -7.95629016946282 2.2668168879402413
5774 2.9567607868273336 -2.8432823370883 1.4867829064479738
5777 3.714530693452245 -2.2169613670638757 3.991792071579908
5775 -0.06843404212527392 5.727798907429669 2.1959101429382026
5748 -2.526580118425787 -7.744501774167859 -5.020037733582703
5778 5.843113009690475 -3.5984152931745825 -5.586795566761286
5523 -1.0955740293131384 -5.519253583875797 0.265047121972633
5746 0.6773585387066327 1.1314313583016937 0.2985826382244908
5780 -2.646197035327321 0.14861700723380072 1.1538725860352677
5779 -3.3849779263077497 -1.524244948415948 -5.98740833950934
5525 3.4579089898492983 -4.226343672981086 -1.1198182649533237
5496 11.539376725490808 1.9832236648480042 0.8759752344435823
5500 1.3513212522600035 4.223902878257551 -9.106470129793314
5527 -2.225399486077074 0.24919416667821723 -4.291684943556519
5528 5.33262541283347 3.2406038936641326 1.6501722586509926
5532 4.572451435759338 11.109427738691123 -0.2069901344328712
5750 -0.3285414592665691 1.6144526936872716 2.2433287201727317
5781 -4.116311890130176 2.4111894206099467 -2.1305764508138587
5782 -3.7425684831983217 -0.7155887780888859 -5.764847989424127
5785 -1.1746523354357887 3.4571979238045647 -0.6497014199554484
5752 -2.8276000601170277 3.7310493928859554 -1.0869148025272897
5756 0.9410618648678487 -6.2089467829297895 -2.4437755527074003
5788 -2.776013307736823 -0.03957007526564929 -6.108128653569641
5783 3.908010106500089 -1.2991921495365588 3.447723586729991
5784 1.1050954935489419 -3.6123686831829267 8.32386558397473
5498 -0.22615982686670605 -0.9370298578289751 8.818164036507843
5530 -1.1313422378424665 1.7704862587704524 2.5754478952039306
5531 -8.70041192629651 -0.42438618072798384 -5.492570898160671
5504 -1.6801933605282602 6.594730200558416 -1.162923248555865
5535 0.0794119990133164 0.6923040130049339 -6.116429869543879
5536 -2.2492853760549125 -3.617996499482765 -2.0692051964416063
5754 -2.217160170046378 -3.958247649892109 -2.5567496032118333
5758 2.3700450544479916 -2.770524180859301 -1.2544519627130837
5786 4.2859575355280075 -4.976745050995304 3.9059319096255307
5789 -4.859679797991866 4.654211557122187 2.35876235235606
5790 1.1111510528246287 -2.8536906534089588 -3.5664482393618187
5792 3.0142196379874866 -3.42576713855918 2.261127974525903
5791 3.6600046788699014 -0.42506382592853315 -2.506829934211693
5787 -4.099596480497891 3.2893298402319378 -7.227393604693374
5760 3.292533867567827 2.394966722587051 -3.8303647446752795
5539 0.25599931842578016 -0.6978089430825775 1.8398787746394536
5544 3.4045907014531656 5.764797839920949 -0.9680944910182551
5571 1.801554322064202 -3.9726500182268567 4.436912951707171
5794 1.7006407314293481 -3.5962978866348236 1.86884665098847
5797 -2.807469397050904 0.7563156816797502 -3.092647961792585
5829 3.8203486709634067 0.5534675309768168 5.8609520042201
5825 -1.4077821361644234 2.168560634944787 -1.910517528051476
5796 0.16411820522894272 -1.1797073658949229 -0.5885900209121624
5540 2.358863403085157 -1.7029601519835484 2.992339226638305
5793 2.3342466485867446 0.8753367732480213 -4.119231940177745
5827 1.4815407610171236 0.7339390893864178 -6.483528938218627
5800 -6.632677585755345 4.453162547300181 3.3268097512324046
5795 -1.9780786882104509 -5.384084608762968 1.1730419156029401
5545 -2.59748911451418 -1.3074345946923038 -3.6772375489235856
5575 -3.3623419580535785 -0.4637094859318646 8.961215235814928
5543 0.6766817125686919 -5.917935667347071 -2.4675157924293325
5798 3.309907339022332 -1.8977673124208867 -4.930015636050421
5547 -0.11491748888470227 -5.569086340332374 -10.537032846837162
5548 -6.698619084921897 11.586881862158465 -5.231668142394866
5579 3.8555028464129957 -3.5057054532796808 -0.7738888405905233
5801 6.348315513486399 1.006557351381458 -10.259112602474106
5802 -7.360531657841606 -3.2740576189571478 -8.323591744920444
5833 3.971457470785786 -0.4863336214540366 6.301467446594517
5835 -1.1604401602270558 -5.782205953919121 -0.9451685721305183
5831 1.8039501155638926 -5.377024980097767 4.969435472693145
5799 2.515293311411122 2.400651898926538 4.42629683086067
5804 -6.0757840145822355 0.43882312216829433 3.7514430177227296
5552 9.31935877721577 1.3448976823309726 2.1690775019976143
5803 -1.1985513249154276 -1.6585225169582787 4.882069190594397
5808 -0.40028336001554865 -5.842788737181974 5.2262415898454195
5550 0.21205731629567276 -1.5293285894910065 0.8816697963067879
5554 -5.938045525131638 4.477771467659187 1.636569208602133
5805 1.7740249636971024 -5.1542080561057 -2.9545068195441613
5837 -1.3128347356868206 1.3593727302078844 -5.1543523855105535
5551 -0.06727725091098567 2.683382937847418 2.673072630784268
5555 2.3120844065932498 0.14361874504886155 -1.4667156076306636
5556 2.792665393583481 -0.8230214392232741 4.51433225524224
5583 -0.864649499239938 0.6094188309638549 1.1724865533092328
5806 3.9528229277573557 0.3994229541746838 -2.9688430192462656
5809 1.640938032106127 3.821341318840404 3.730233049911699
5841 -4.230862308313237 7.421139901828987 -4.382432443006264
5810 5.658205476184225 2.8768125619696474 -8.718233656228946
5587 -2.4832228972590276 7.0900816866378324 -0.6351916937408818
5843 7.277979791090086 7.693885001287707 -2.1691054774576934
5839 1.3454606172099937 4.143798903609048 3.5194933059665643
5812 -10.861326295908171 -4.206300983962869 11.011569945484503
5807 7.9373308328141885 -4.96159500940152 0.16609900551202664
5811 2.1959268341355185 -1.1955533681352182 6.163031283555794
5557 0.4976294396081963 -3.302026793776319 3.889702618521169
5559 1.571649984267694 7.862767116684266 -3.5840470550902617
5560 -1.2903447806229642 -3.4933590725553816 -0.7461923938158869
5564 -0.7934768495867326 -4.319709897022355 0.9710107981954136
5591 -1.290633329842154 -2.1101143331958645 -5.14650343045393
5813 8.21371910944717 7.526711240092456 -5.944591263837361
5814 -1.107420340484271 -1.2457305732888013 -0.6928559698527402
5817 -0.2251234423946311 -3.86099130416939 8.149575579734533
5845 4.7075474890922875 -1.343767073251158 -0.601923298028598
5849 -8.32672426200049 -1.450845386186452 1.4729965907955909
5820 -0.5598690298945193 -2.816459734547006 -0.15369214233378997
5816 -5.955121747796931 -0.2199350589165735 -2.174721379109164
5847 2.0766244619315284 6.248479309549658 8.10647027593849
5815 -4.44788367727452 2.4571236747627365 1.7460829056720242
5597 1.115712180349533 -5.712389498361922 1.671809622298096
5566 8.364030957296508 -4.533985597822831 3.2613554628323254
5563 -0.9597845839081864 -0.7118429158873485 -0.23796198566991572
5567 -2.2537513075115183 -4.1449263664673985 -0.5601719994837258
5568 1.2720546400548582 4.125138940691301 -3.3880135824325723
5595 -0.5712569006806432 -3.7197689728557686 4.041770097540647
5599 8.280345790150175 0.5899068395216376 -4.435543632215253
5818 0.5306749345016661 4.057342494494533 -4.3879938167168495
5821 0.603248027801411 2.7806881593142605 1.5079164532077545
5822 -8.543345224862207 -7.474421781171211 0.3164191860245068
5853 -0.9609399057119373 -4.062608088875742 -0.7168242251321352
5855 0.09142959912803873 -1.329246438108261 -3.151834471822341
5819 3.546798074865471 -5.065318589122712 2.5435067137540184
5851 3.809167758694706 5.016056829070565 -6.235315928950094
5823 1.7963309052978043 0.7778769104733408 4.8390784382966245
5570 -6.0367891821949815 2.9360612064740734 -4.232890328321338
5601 -4.521392295693005 -3.8755115374503255 1.4445412110567248
5606 -5.296450141558445 0.8556113597571916 -9.159624660908724
5633 -3.400327007454766 0.8435651482539319 -5.934030756537982
5379 1.0139281350355944 -5.031411366109292 7.272610317540745
5572 -3.3011699255895617 -2.7921240361853465 -6.188593373397249
5576 2.2183794088613666 -1.2783984848821137 2.6806733384417325
5826 -5.455053904595574 3.67198098821534 -1.615203701885663
5832 -1.9316737453135995 1.6310174208212012 -6.854067307172624
5603 -1.3228008284638129 -4.285395956188534 -2.9541400519501417
5608 -0.6957585438260733 3.0417708871288207 2.351336185552092
5858 7.242855169247318 5.512724329268119 1.0677540134258214
5861 -4.5094260973360445 0.5912087334917654 5.064962101082464
5857 1.6607382716846768 -9.25036107203991 -4.578052847009751
5604 -4.105450839500693 0.3776494016939973 3.631897902394272
5859 -0.19595619967931605 6.957049647306983 -0.6638770955474508
5828 -14.65625094330318 3.1914255035044996 1.7544651497977806
5862 -6.527814526015579 -0.5745157496718353 0.926271259937925
5609 2.3566734722281444 1.8422645852132586 4.001644918096569
5387 4.316933449464677 -1.3681729517989893 0.4325786820465686
5645 3.1852047265551886 -0.07034160333112281 0.91095933847613
5830 0.7074181154181197 -13.927519779766445 -11.195542614465987
5610 0.4539730018893153 1.327557816664017 -1.719819189009045
5641 7.190624109303517 -0.482474948323507 5.861116902068526
5607 -5.895619777601021 -1.0677856566972659 -0.71837193785816
5580 8.30400660166671 4.320560980088709 0.818115099827847
5836 1.3528348019314032 6.366729722689866 -1.0735808608581026
5834 -4.5691535343987555 3.508075338657847 8.377571370273408
5611 -2.052713717762776 -2.1721984271171575 3.569110562605347
5612 3.7173982004399435 1.1784890973785571 -3.2015866405161577
5865 5.068169223883211 -2.6345277054605174 0.05720995387424899
5866 1.8036656029774245 4.3704028354586875 4.956600753040719
5868 -0.9899220126468279 -0.16720543671862517 -4.525597880692263
5867 2.293348368657349 4.636816579270838 -2.0530723636139054
5584 -2.025561969581417 5.886010978541345 -3.6175834975413315
5616 -3.976311375068858 -0.8243718741035917 -2.7891466086811607
5639 7.437414697392703 4.6731198729763355 -10.88128993824526
5863 7.043398191647639 -0.18896875951513586 -4.441636923067588
5617 -3.312578482167665 -3.15603321150744 -3.1754736155461383
5614 -1.4970601899033982 -4.187026851302406 -3.8376901888029074
5647 2.5267106457846524 1.289539483827245 1.3734576181537745
5649 3.8446212361844156 5.318829120673529 -5.677858919136515
5651 0.9142462778956171 2.530498111812406 -5.087551239573059
5869 -0.10350544436143554 -6.850496924957397 1.0006032732427588
5395 -0.36612814692970697 3.1635083014473055 3.4084881093774104
5838 -0.927133104435629 6.677474112289294 -2.1822974116895946
5588 2.337354003822427 1.5318395312647097 -3.6321753635742002
5844 -4.44462989372411 -2.1679190216724136 -1.3277606990711104
5842 -0.34303091864252977 -6.013511777731302 -1.987484154154535
5615 6.004682645924789 -2.5414913333525453 2.7928767395471423
5619 1.4815884782982496 -2.93601757389995 7.193269499345756
5620 -0.6039089768578718 -0.6803207935357231 2.657433898609349
5870 1.009460230643567 -3.397007114782833 7.040075768730522
5873 5.714562410686101 -2.795462935460486 1.1293936054288993
5874 4.115700058394895 1.7898055396154244 3.5340184274418047
5653 5.050678961470384 7.186629576558034 0.5760106984252492
5846 -1.6418823050682352 -0.5922229596995963 1.3625170244022236
5596 5.324084870652855 -3.9560705301885846 -4.320949712643742
5592 -5.350186161727055 2.929540456691657 3.2150767605237016
5623 0.5645449565644215 -3.895400334572424 2.891840763996594
5624 -1.6152409587428822 -2.9966807741587056 4.53808121615141
5628 2.6733104693041105 -3.2526316460345974 4.2344967997559975
5877 4.537469117527867 4.8768922129504535 0.6476021659016217
5878 1.3880704639807604 -1.869543074923587 -1.1881847864425383
5881 -0.20224499647022498 1.339618834889327 -2.480076008420522
5848 -5.160681273794165 2.4114276375645134 6.6782454820909685
5880 -1.477786767238867 0.09463472070502205 -4.604208907326119
5884 -7.449280074776685 -2.055337617553679 -5.394056654072957
5626 0.7980641815041711 3.6305775079864686 0.12048188659319753
5598 9.530881694602106 5.829877527980761 -1.253650200303739
5629 -5.212578242621774 -4.131858133360463 3.0674836736186197
5407 -2.9740470866973014 4.1307946570092415 -7.537134490216303
5403 -1.8125790654108247 6.035039909895862 -3.00622600893381
5854 -6.312874961856702 -2.095884902711582 5.330891402273802
5661 -5.63467406776333 3.5212502543542246 5.4680339230754
5600 3.7884134342286293 2.6442055917707252 -2.0881941814660214
5850 -7.12186684199571 2.062168481796656 -7.321101070152012
5627 -8.003513956048199 5.745959739840019 2.554250300110918
5631 -0.29834523398892804 3.337762586660696 0.11353814702328356
5632 0.10451098555823057 -6.331962103300843 0.10700056410105913
5882 -1.8435988113965653 -2.622446972670813 -7.64329122885923
5885 1.5298729058932274 -1.1856494750084996 -6.744151426630031
5886 -3.09259344778104 5.314599345680061 1.402142574758864
5856 0.15934599458454834 2.505355231079401 2.9086528326016987
5888 -3.0547648473014575 -0.5206463609457221 -0.4577689629784913
5640 3.0479425516995575 10.664013734653206 -4.101364477951408
2 10.713371385709234 1.223553196358363 -4.398616479807105
5890 4.084213383689275 1.4169086632532255 8.18226387101089
5896 4.027458867179947 -6.513766849425686 -0.8727308708895346
5923 7.17247716936814 13.796107656971216 2.981321994297511
5925 1.326891553825544 10.158938470169266 5.107351290753983
5892 10.679516222015096 -8.627892578936951 0.18225132749877396
5921 2.0204127492767157 -4.872734995067495 -2.530045165576614
5922 -2.0495141751422215 -1.6607265545625254 2.158067817846053
517 -13.115834935033245 3.2625777236088487 2.2234333258055736
5928 -1.1851443042379968 -2.5427090441823275 3.3295865987296622
329 -2.6956563812135337 3.6169207552407063 2.5803261468615317
5889 3.0521848582819278 5.6010830425915685 8.849453515796679
5893 -0.6610281020278633 -4.262998748020405 5.4824490979602585
1 8.391871037142762 3.92385813954957 0.6048102707189946
5891 7.068754169651361 4.465404815674154 -3.0670383197106026
5675 -4.721836993815105 3.147992610773632 2.962135449479423
5927 4.674321337806949 0.4411041233772436 -2.01027843995978
69 4.857993531013436 -4.925257562553097 -4.111625592555127
5895 7.405971837816436 11.4004503980956 8.705781550105156
5 -1.9307742023339882 -3.232475860048928 1.3125532834968474
494 -5.812523128859316 1.384426387254827 -1.3324767037258798
294 5.497178810034407 -3.0485358209226185 2.0952701660150144
266 0.8466831807544699 -2.8830038455099025 4.655284429748658
5894 -3.1235990827050486 0.4974569090335575 -0.7825482659613849
5898 -1.9539774248325787 -2.6996218655713906 3.1407330281748456
5900 -4.744224004908117 7.267543091778318 -0.7325405844230268
5929 0.18693352118301262 1.5513401843348182 -4.579577648320127
5931 -5.281334727551767 1.3356558785580557 -1.5531888441247224
5932 3.9618528186193114 0.4711078334100184 0.8690423181211485
492 10.616065542684447 4.399079587682149 -3.1689169424214616
5930 3.2247351095943917 4.619889000059323 -3.842848507144123
45 3.390555316300239 4.488065439892483 -6.5062865798972025
5926 11.95923976737908 -0.9531605782516662 -13.338502380433605
5933 -4.421668562711966 5.151706738700623 2.151697190230632
5936 -0.9826710191396584 10.94286752592071 2.8188578914476334
5901 -9.052234382428484 -3.0954352110602343 -4.780776954431273
5899 3.6521406750967036 -8.303750038805484 9.248511107388836
208 2.073556603970076 5.199286655559496 1.666564397323223
5904 4.735273776833059 -0.2915686812845073 -3.89724204961923
14 1.7823056412559428 1.6406546917005465 -11.38931352110612
305 -4.027026538403215 -2.764724258962806 3.3108635267981583
113 -0.9514293378252099 5.308688536466629 -2.7331522329238855
5902 1.7663065047324298 -1.0247417855274275 -7.298453072155004
5906 3.3681780576462628 -5.5283457644135625 -1.8846508228619998
5908 -1.615931174647076 -2.9831602577252965 -0.10976967514124149
5935 -4.280178034859089 -8.688163049510727 -8.163107694479278
5937 0.4595461707885234 -2.9167274057091475 -0.9565717486953664
5939 2.9774922649162585 6.037569426712823 2.777554468295211
5940 -2.759326708155964 -0.4056549392441587 2.8622993487536923
5934 0.24793621224609674 -0.5181729881769079 3.0441863409776344
5905 2.8976345733950697 1.6995765541791796 -5.078456583598112
5907 -5.371297536420848 -6.400240788448555 -2.3337571018804586
5903 -3.7256232907708116 -0.36289942093722777 0.9754401889629438
53 -0.5520793300863956 -6.334951401346061 3.8358505294090057
5938 1.0813313578865877 -0.5407115646641802 -2.574075882961343
289 0.9623217907546118 -3.5986704136031236 -1.3272903814006498
50 -6.030141582258764 -6.172519972921911 -1.4122041860643617
115 -4.330811111882767 -1.2030088903971494 5.924598868476631
534 6.014974983566587 1.5837076848157192 1.7701001156222633
5910 -0.15336206706483496 0.5920354531006923 -3.4455863933214177
5912 -0.13558184647662572 -5.280388416985301 3.3475753296283393
5916 -4.416804869825055 5.750869575377545 -0.5056719490289956
5941 -7.968793125896371 8.975429019094362 -0.10611861787871524
5943 -5.331298892699496 2.3495454037680346 -3.987442807581982
5944 1.594901854563027 5.881509448846124 0.5555172388426454
5945 1.0742269864616227 0.5771704932632397 -2.0630498979808816
5942 -3.854335654206558 -3.0111754006577387 3.7812595808303993
5948 -2.9268647293979013 -2.316827829623767 4.846670551203439
279 5.618029550372855 1.2219019983333663 1.7297915068042051
5909 1.040508023523371 2.598001813376841 3.559387406065074
512 -2.5584877286953556 8.66597610544674 0.6328951759549506
95 -6.5610760151627465 4.302571078361086 1.6096120388243087
5691 -7.2554267123841845 -1.5106514681643963 -2.9494879601852135
30 -2.0097674831579306 -6.994373529511589 -1.4166287734687126
104 4.884251420604272 5.733711058297017 4.719568722500617
254 -4.175983633069574 4.08491534118911 -4.8242071186492
90 6.118577025525867 -8.989159573613719 6.565899989149238
5914 5.156063275937952 4.1217945109474945 3.7058072865553844
5918 2.194004210582451 -0.5659509965238267 -6.495360614301062
5920 1.7961948939878112 -7.126867870524929 1.868068812204829
5947 -1.572112468688423 -2.5321226630369806 -5.709540099559331
5949 -6.615600380284018 -3.5304196999327413 -2.983120717449987
5951 3.812652219408542 4.210939166368539 -1.1507506886224372
5946 0.6100561283083107 -3.4568605764525784 1.3261037965964726
5950 -0.6854822432620968 -3.8398145121478726 4.5740400763574804
5919 -7.519578465882135 -5.426259350664648 0.08847421986852755
5924 -1.0645022861891156 -4.962148802076148 5.595847296974047
61 -2.883067762238232 0.8779661643553175 4.651386846061289
101 5.121200451353889 2.258828364024947 -4.660238993421121
94 8.238205255251573 4.911148856303933 -7.459281943320496
666 0.0016927466850612388 2.858357930882048 0.8030506310092526
897 -5.127563907587152 2.4077963257800237 -1.2945394197503355
5954 -2.8464720724911685 0.5747042188398088 -1.3773099702905696
5955 -2.541429076759255 1.6829858129958657 3.950994805243902
5957 -0.365399530762907 -2.824830352786522 -6.094304076268927
5960 6.011996734731515 6.982983344786725 4.695453320896638
5987 4.280687195627037 -1.8201196198056104 4.469423660576646
5989 10.384364796917732 1.5967382066197358 2.3515982263427135
5985 -2.1314772939109132 -1.0497515267279818 1.273741197138486
5953 -5.728404159303441 -5.1916668811151 6.4214628243193665
5956 -1.0321808598298212 6.758477018359703 -5.657942032723636
5958 2.538156316973694 -4.4967599582172255 2.9337079910639194
5959 -2.6730276478660877 -2.476446496243732 1.4139098149639888
108 3.9977621732576702 7.757041942920019 -6.233564998184077
5991 0.14887017360375712 1.430483096296193 3.874014185034689
326 -3.2070371297007108 8.320439869305075 -2.552932515712887
70 1.9960393402645589 2.3371005396705944 -0.39080695714665836
269 1.1496393409675376 2.4464370002408096 -1.9782924178405938
5961 0.5685660538942887 5.197191228191297 -0.8364317358421575
5962 3.094047535134743 3.8463748194099314 -1.5766598687089666
5963 -4.484864441101111 0.20201143693220547 -0.8687924931917393
5964 -0.28495186954361224 7.330491883612107 6.082973614945977
5993 1.508657532873713 -0.19058850136099162 -3.289505834574343
5995 -2.5597225300385364 -5.667256029039159 -7.031836626969011
5968 -1.9171344655225964 3.017634750185843 -0.9161230499971323
271 1.1641559425192316 -6.624981935975224 -0.8807708075102056
5997 -3.7583735002988057 0.3532936159720061 0.4521927766077296
197 -4.188058351914287 -1.7426147877319504 4.099463124353975
46 0.6005563554999805 -6.490034301776633 -3.5505150861619206
5965 0.9564342734037111 0.7913570073765762 -3.9521904558981964
142 -1.9989571919006544 1.9858453981590627 4.101419518355156
475 -6.975927398605012 4.420109401360319 3.860518979026217
76 3.5678670270437984 -0.5632840653097746 2.4341684828668
5966 -2.829231761251976 7.229801997932807 -0.7523118265530082
5967 -4.768682847423495 -9.186989909114777 0.5750498490341324
5969 -1.365753259058788 -0.5344420546455836 2.3164832551621224
5970 0.9220796993861436 1.5030920483750236 -3.2804192398626935
5971 3.252255102794002 0.7042804729982535 -1.033755246756393
5972 -2.2886294328937242 1.1669124112378189 6.628266614844113
5999 -1.393049902710174 3.0281107057547882 4.609654033108686
6001 2.2071505313160893 -7.5127679020498705 -1.4493093495610352
6003 3.2466288479723295 -5.448280342189866 1.0285734656712473
59 -0.17601708407161543 -0.3713429041132647 -2.3351980695988734
118 -3.3110050570000067 0.3811522975740896 0.32747610745967204
121 3.777889435050135 -1.9169124922035683 -1.4031391013232473
633 3.146040360129141 2.0857462827817344 -2.1610866587550714
5973 9.322923984908016 3.560323914113853 1.708872195606647
5974 -0.617139233261496 5.195888202295205 3.088635992173691
5975 0.7048309470878665 -6.5766037716748595 1.4303680238720722
5976 -6.672998172893752 -2.7845501949426383 3.5568925834464
5977 -1.039573466815274 3.041002556603876 -5.643869477190569
5980 -3.015244337105563 6.501902162963851 -4.13116242328536
6005 -5.311091865218993 -0.00597070946500056 -3.490531158179367
6007 1.0018307369664718 5.986677431795314 -7.020365264072607
6009 2.808652727765803 -2.3248564965288883 1.138499473714597
5952 -4.304846732023633 0.9440755075149008 4.408885889089846
767 1.343077177443644 -1.39864197467927 -0.40361378622671584
127 5.052096622044027 -6.039553989169717 1.9907423257074102
100 -2.5152117831548098 3.7825433216011755 -3.922881709148128
577 5.061261698269565 -4.731520862194405 -3.810997405206291
5979 6.1344728175886605 6.643277345395828 1.0512603919063659
5978 -3.0366126034803536 0.3014601984956374 -6.768875325785187
5981 -2.678676617800661 4.283243031296004 4.9436305039805735
5982 3.6659625999251726 -9.999177335154044 2.4680849626835806
5983 1.763989537523821 6.47205985502774 -3.6552240674256478
5984 8.669775323694406 4.602869356756891 0.6286555146246054
6011 -1.2012385207981993 -2.08859726467584 6.754198994721423
6013 -2.978675611531891 2.7583393992386163 3.2354675171825833
6015 -4.072615557663988 3.5800200760337466 -0.8060173475492692
354 1.0664323430654252 5.79174592986613 1.4733413941884617
414 4.971317157999917 4.892173803070691 0.44614423137568043
98 -0.5439053056140912 -1.5197925161489279 -3.7109005503947494
105 3.4405882466832214 6.7394012727816675 -1.2810740602147337
5986 -0.34137766594140234 -3.066952606838702 -2.225344598045746
5992 10.27315145453836 5.736829755350364 3.376594349763679
6018 -0.09830295655910491 4.07529642039921 0.8599689689895066
6019 -3.609454030256968 2.2081948636763817 -7.361392217599071
6021 5.864002914004786 -2.069686486659786 -2.5453721714843613
6024 -1.4794687156415045 6.34982741840628 -11.628860074788532
6020 4.906590437347902 -5.791375826352764 -2.613933937744613
5988 1.0269899410360062 6.017304111301875 -3.26043496381094
6017 2.3776727415144756 -2.502791236331179 6.786542881577334
5772 5.122259679272768 -4.485738572284284 -3.3186033092142195
5990 4.759877480624282 3.005580831420807 -7.360586772089426
333 0.9285506689987254 -1.7179422357025913 -1.9569269152568232
162 -0.39818263219667943 4.491536906382666 4.017372237409941
6022 2.9646523728988274 5.520377548491315 3.4854954743511244
133 0.49357977425329547 4.121598176256034 10.451339429090853
876 -10.975531264172792 2.8336595308068815 -0.9905540258280717
6023 -2.5273595611263184 0.9160194775057784 -4.389564693872292
74 3.50820772387628 -6.572972497425362 1.4668179181566146
134 4.66811471894729 -4.022153503899756 1.079328009763436
5994 3.346701465048966 -2.5387362363601556 -8.578200580902537
5996 -0.9112302489279059 2.2202365349558977 -3.5122794781643845
6025 -0.3778841048528674 -0.1327021719437207 1.195230779299143
6026 2.354441136875605 3.7872023440393705 3.0191967519374594
6027 0.39789196419394274 -2.239900838076872 -2.1099341229009303
6028 -3.0062041808478726 -5.23872849810572 -6.140780118549666
6029 -1.323301267668623 -6.681007999374231 3.095521095568305
6032 -1.799707235706763 0.992695581511658 -3.237736410506514
6000 5.519831174676307 -1.4591420577550174 2.6586234748993527
621 5.199156816679789 -2.13008208043541 6.047485325391705
558 -6.235162271548899 0.4276445832036283 3.7635804144597587
5998 -3.102971040639493 -1.7721959760835848 3.7378085278927995
6004 -3.138190559894081 -0.0588924257685717 0.9277001330640705
6030 0.7130130935007309 -4.5144476647366805 9.867230829942907
6031 6.445421879342649 4.514359224894338 3.053528859295435
6033 -7.461328634057511 -1.7848682178693658 1.6934872266971557
6034 3.991995900589211 -6.282770653419289 -2.5745327138206866
6036 -3.044741659485875 3.2847663524446835 -1.5968824186069663
276 2.748908296168474 -1.5589658702203117 -3.3047782769170215
6002 -0.8629684173503231 -2.237024414767515 -6.129386801804414
6035 6.55188603596348 -4.676041177592132 -2.391909904170597
123 -2.679315467627044 -7.1207772210924265 7.950876069161449
923 1.3896437561991035 -0.47673673503028285 7.525421344670719
149 -1.3932576508275014 6.4678897711056695 -7.2684729133569315
665 -2.964144283031527 5.430477307083032 -0.6911836941066555
6006 0.4312284834727473 2.8064453915960224 -1.6712317845239466
6008 4.085037170041001 -4.71307341592488 8.09473922198637
6012 -1.0288037834111943 -0.6709997713439226 -3.9717426245432517
6037 -12.639151650680619 4.60461762269159 -3.0404838818316926
6038 6.445223287810271 1.6284994006941869 -4.918684843211253
6039 6.508215496429541 1.118996265494518 0.19033186635728322
6040 -7.431304682991622 0.4353209412341481 -1.2327057244643893
6041 5.398456888741438 1.5196243531853413 -0.9602105266602267
6044 6.78640261550741 5.396214243260062 -2.7908619903776444
644 1.4803744139031716 1.1417150555250986 1.468949195147242
155 1.7293850755936002 1.8365723275133488 4.347093526484748
379 -1.6170442212443146 3.456187538430356 -9.41822194164438
124 -4.246217818936009 -8.545226098374464 -2.6616002070948612
157 3.0892362093576753 -2.726296383406679 1.8713947163634967
6043 -1.27676449914546 3.8314180938878457 2.35123682713837
6010 0.6482204924510819 -10.311877588920636 -1.6945964252266825
6014 -2.033552784615371 6.680609652041906 5.560897177258062
6016 4.993779311287432 -6.402272510307284 6.806761343278592
6042 -2.840919773535261 -2.6382943048097167 0.2108315705269736
6045 -0.07480524992866636 -3.004964164316524 -0.42939508463662407
6046 -0.7609346738674968 1.6543163827453558 -5.7180924588263355
6047 -3.3319662009932323 3.595186678789455 8.684302864281188
6048 -1.8060409953919654 -11.413605859078004 -2.4494838979423026
163 -5.547761388467782 -4.811245437040241 -3.833089648311282
200 -8.653883015075909 -1.0136886483107623 0.43061472778958965
199 0.1696503308543736 5.222632722743607 2.363047878354261
6049 -0.9230119615591721 -7.7793668710711215 -1.1048308417835146
194 -1.0749690390881952 -2.4186276390380024 -1.6199112340743462
6051 11.694181160019731 -0.7752313841544959 2.8058145546953925
479 0.9308221323315117 0.2553101141256554 -3.691372043328444
6050 1.55303194151048 -0.012869392972076704 2.367166374282227
6053 3.8014250919336394 -1.2222711110994782 -0.8392782153281826
6056 2.2911022277033886 4.411045712451144 -1.0222772815329209
6083 4.258555009484636 -2.0047052960957985 7.941310335826632
6085 -1.9085664467241867 7.110008504419274 0.7989217404326086
6081 3.0607225032827854 6.321849338382998 3.2887899483730965
6052 4.418438961783678 -1.0516466826713826 9.226172583984352
674 -2.2443880453526783 -2.1619105081854966 0.41298784304785846
384 -11.682655847665314 -3.920288105920936 7.265477991439737
6055 2.4431627684584587 5.157236746064448 8.022953785903278
657 -1.020387533295991 -0.17362253410670503 -4.218084843430055
6054 -3.697648520584811 -4.689955242872269 -1.1516234458960308
6057 0.11435284901072364 2.7709690499356805 -5.238103708715227
6087 0.17507504297618637 3.9935194025780483 0.7579329740439524
170 -2.339706053216163 -3.9436607561054333 0.8020037879592483
6058 6.73205767443406 5.528418913700081 -5.664569630666894
6059 3.0569736263142877 1.5101128413425577 1.5177433324031708
6060 0.9590497688254938 1.6878872833688956 -1.3994720103836535
6089 0.6032258252410929 -10.344788968039717 2.296734130583746
6091 -1.403753167334428 5.023470664079136 4.410433498791486
6064 -0.3284373580702479 -1.2381393189326757 0.355519403026177
6093 3.129166311831429 2.291215318218589 4.91999253418132
138 -1.87412132383235 0.054048425789152116 1.6491223170819276
6061 -3.911874679496572 -1.613408371465905 6.291050037972371
178 5.0434269808525825 2.7528659523122543 -4.271266502166508
427 -0.43385900993176263 1.7714988794059194 -0.23608307053323946
112 -2.778046005753329 1.4345252929481147 0.16546041135975542
6062 1.4468826607992682 -9.077694959663676 -5.6766383184076705
6063 2.339154078828251 -3.424683804004855 -2.326919666205799
6065 -0.9162285756441684 -1.748619417897954 1.8681070986990398
6066 1.2332773338458043 -5.638882670168219 -4.642728693702268
6068 -2.3320026536662635 -3.418629180263741 1.629987597287205
6095 2.524189741699689 5.934712571977112 1.1417115493534684
6097 -3.843653717791043 -4.116958441095913 -0.5651262931769163
177 -4.3454675998341 0.6308055760180226 2.3659519938773643
6067 -0.649437723003232 1.812495778753746 6.939394138083147
6099 3.297279567206578 -1.6153053877214227 -1.6204179845210214
638 -6.819923354869416 5.230735422138298 1.1468479486190195
181 -0.9860411311704165 -4.114205558414151 2.5841699800067106
153 7.30779813843558 -8.1004193029486 5.385842199401987
730 -1.149004335375065 -4.243501688375165 5.904621720539489
6069 -6.66249292917125 8.188040203465844 0.5657657931906874
6070 -4.168460195381226 -2.2563132871777962 -4.171596217344848
6071 3.0310627398401664 3.5557188375318054 -2.1386065781596018
6072 -5.648374305705572 -2.731127285281642 0.9374278644671151
6073 5.390250315355861 9.896713827742296 -1.583584733698295
6076 0.5976300431067052 -1.5625533161914795 -3.1068739139698858
6101 -0.6301085452996585 -3.474320671047368 -1.8520584407556941
6103 -0.013758725263262939 0.6693987196099669 -1.3654879043931631
6105 -0.2790553351750649 1.7008570907530591 2.8217342751130463
385 -0.5825666913659591 -3.7486651124519685 1.3815440071518001
5824 0.15822687523535545 -0.35648983398740036 4.729748595098088
474 -0.3882428972817178 -3.245226914558949 -5.817975998537947
132 0.34057292870711825 -1.4248389101237413 -0.23556646844907195
6077 0.2703906550359032 -1.8777760529956145 -5.111632241448151
6107 12.232119715161597 0.28527373507227954 -0.847771778278742
222 1.4212520754825377 1.198777660096078 16.317516820475394
6074 0.2811354970632325 8.858350907842881 3.2474126518927453
6075 -3.842071430226892 -1.280949044550664 -4.230196913235883
6078 -8.385557826351729 -0.08031842676947679 -5.766134390217423
6079 6.910180285338769 -3.180420401288304 -0.14364055754207694
6080 6.55044566839442 -2.2558912861692995 -3.178891723647585
6109 6.256499347834026 -4.441985628696391 3.6302056903802966
6111 0.5514335418916235 3.1547171245530707 -1.7435203121328642
5635 5.980420290124283 -0.06259978488759521 -6.161004531032217
5864 0.6969024760964591 6.508215299875507 8.434794474856135
5860 -4.831714199009698 1.5884116735175309 3.8547718036936844
231 7.2527574567169335 8.294205677684904 -0.16863820965787413
252 -1.5453375354966503 -3.567542027836165 0.5039269203384507
230 -0.23208631020763165 5.529037099067398 -2.9965941434208077
257 -10.940453068482203 3.747027382440835 -4.287899468169201
6084 4.650213608691893 -8.130871674888162 -4.174502642028137
6082 -4.327536192277872 7.881140320317264 5.545303669167013
6088 4.196038465048292 -8.357953206264689 -3.916041092086572
6114 -1.825716012976881 -2.2072550681290837 -2.8879838422264084
6115 -3.989745949866055 2.7005397789733157 2.049317615860942
6117 0.1398120606078658 0.43741253055794915 2.798211664254498
6120 5.189688783817392 -5.352419672724872 -0.09257328745740569
6113 -0.18817287201538485 9.160245611319969 0.988457058447221
6116 -6.269960260953202 -2.3298854327672593 1.94751592649603
229 0.2861898370861887 3.5249265643613454 6.0386456592960815
5840 -0.5940318321732173 1.9802312025427957 -5.808122589272886
5872 5.269435746529053 -3.8446908006963736 -4.332521755116326
5897 -3.7121481209569445 -2.8429893725713837 -2.2711750450881936
6119 -6.217929725922048 -9.769577783220345 4.45251302733589
202 5.079048804029467 1.4547140914417507 3.5089679212983986
429 0.609266108747461 -1.2467091961774872 9.150722061641385
259 1.4058341035214212 8.381617088856704 4.864800814943309
6090 -4.5512509253971585 -1.9793269910714473 1.5056310673763458
6118 4.329444839875336 -0.37215487368908023 1.6464970075612648
6086 -3.9696114233838253 14.144479686422276 9.457924209933886
526 -1.9199692573910108 0.4288343000672941 4.381986232413066
240 -4.179920343322348 3.953744584670577 -1.4923732260724099
6092 3.6578957416262528 -1.40481368173139 -4.708541883679535
6121 6.891504555562564 4.447256535951445 -2.2134827653618987
6122 -1.8551889635843541 1.050501773115184 1.6050770099775988
6123 -7.78537986750692 -7.064352835326046 -4.954309007872449
6124 3.158642823400405 0.45698049301563926 0.19555650321647947
6128 -11.833598207147043 -1.3819959239514177 1.6250624905742126
6096 9.057319055835741 6.843331672967601 6.224033866568181
174 8.279955622948009 -2.1532973497265835 1.3058699824070221
5871 1.5297830755160582 1.3190408291991613 10.495261329745524
5876 6.187733991916375 -4.099158001984415 -3.4352275848364706
5875 -0.4193931996090107 -6.92291002810316 -0.4020901278906332
6125 -8.45326049739536 7.6134166089704145 -9.053102268156872
234 -0.12337533170846064 4.875798758751688 2.6768854492010306
210 3.492944744979362 1.1498811818613006 0.7280050527551803
242 0.7712435959317364 4.272520133785324 0.6171340967071877
284 -0.3528890050135228 0.9641984839654852 -2.55323158398382
6100 8.356678334899293 0.21125897983768516 5.6628693849898015
6094 -4.1310878291822135 1.0335577429516083 -7.3493357219376465
6126 -0.5274886978558769 -0.17314185208829208 5.193302783510761
6127 -2.333114893824205 -3.645470359203498 -1.0728273494803806
6129 3.759818627210071 -5.684128203010403 0.2755261343177688
6132 -0.9971280129187314 3.937222963785937 -1.5819556615488586
6131 0.3520538854067738 -3.451632915627633 -1.93585017681693
6098 1.593153173542916 -6.465144033832514 7.468202682248145
6130 2.700542982804682 1.282075124714325 7.176570514966139
25 3.2466579274444647 -0.5052865765590712 1.4988955408633633
5879 -3.196562589041717 3.424639919247708 6.65499290169786
5852 -5.202428295271551 -1.669696592013192 -3.143111420602894
5913 -2.248158183099972 3.8357269093128243 -6.722209793447631
5911 0.6388910529090925 0.5451010412655426 -3.5993290869666206
6102 -6.0637153685874505 1.078398535719273 -1.2408476065609642
18 -1.7065041402418337 3.4476385166446892 7.101352515943024
754 0.9543763459001082 1.63991755173345 0.44744941796130894
245 4.376566729492027 -1.7488584499506181 4.525682500316851
6104 -1.167995222235904 -0.7557932748823528 4.924219810264269
6108 5.259224440005449 -7.8570264612382505 -1.3878914526643746
281 1.9716476942466723 1.2970665692819319 0.32276633932225895
6133 2.5899891885414283 -2.0149814687597147 4.588195768746363
6134 -6.203178209190983 5.718979949885655 -1.0854531657905753
6135 -0.5643458920696036 4.242421734393561 2.2388990804948836
6136 0.4185302877790824 -3.280829611702184 -1.5231720921956597
6137 -1.401673455990423 3.4166823951974163 -2.6297836583210756
6140 -6.887470357353995 3.1901271021623208 -1.3636146145551844
5887 7.573680090086848 -4.572894018462316 1.5230749192488302
5883 4.455397828515509 4.868993054221005 -1.6525920293389993
5915 4.179094385465714 0.33156288683264223 3.6959152049468176
225 11.82601279712507 2.6111648447756153 -1.7166613810849605
5917 -1.680319220939487 4.222039806368598 -5.029235671772963
484 -6.4743417434266375 0.5515968421894321 1.3529058505242824
31 -3.464151485443717 -1.5662608696286757 -1.6977482579518062
246 1.103155429277071 -5.78638668706402 -3.5968938759533025
6110 -2.9164617424835866 0.9732652440928943 -7.711327329257693
6112 -6.098256531761492 1.0374957472338884 -3.0780336164919957
6106 4.208560610504057 2.7770152503631813 10.648811572937875
6138 0.4590457858655184 -1.0955527068129898 -8.32992110382847
6139 12.447510898402816 -3.7292573565217686 0.016695271782344784
765 -1.028036009849252 0.18336450433188162 9.381449864134812
6141 -3.366337132704117 -2.468608609028319 3.5333559261964296
6142 -2.683270730342898 4.743673395904774 -2.8971143936604555
6143 2.8568851506235386 3.154163577940515 0.2720488419893221
6144 -4.990980823669421 4.676465276260292 2.623203949139776
