LAMMPS data file via write_data, version 22 Jul 2025, timestep = 1000, units = metal

864 atoms
1 atom types

0 24.299999999999997 xlo xhi
0 24.299999999999997 ylo yhi
0 24.299999999999997 zlo zhi

Masses

1 26.982

Atoms # atomic

1 1 0.001283028145658488 0.010175464865096653 0.01589542151562297 0 0 0
2 1 2.072664448978549 1.996611253030841 24.204934154306656 0 0 -1
3 1 1.9479675359677937 0.004807236903480239 2.016939018439253 0 0 0
4 1 0.07285135707064433 2.139844825468833 1.9525796596943623 0 0 0
5 1 4.06189254562495 24.218145560718536 24.286127520253153 0 -1 -1
8 1 4.026940201151152 1.9676379819131773 1.88601312042022 0 0 0
25 1 0.0939888499563907 4.066172761605859 24.262444167956403 0 0 -1
27 1 2.0160535380526867 4.013816788736531 1.9334762510475396 0 0 0
29 1 4.033954239085026 4.049288270948348 0.050103177731493004 0 0 0
145 1 0.03788873210062525 24.272102186864398 4.033699928770049 0 -1 0
146 1 2.0791653068423934 2.0275212824412283 3.9478958188420283 0 0 0
149 1 4.105608235897027 0.024270077299172178 3.910959591291746 0 0 0
169 1 24.188560405886317 4.155978481039826 4.065339676466945 -1 0 0
173 1 4.111745493877682 4.052902000989072 3.971556928668533 0 0 0
6 1 6.104487641695017 1.9838582721944018 24.2729047844331 0 0 -1
7 1 6.083810793504042 24.288052702110097 1.988913348750885 0 -1 0
9 1 8.158202065618951 0.02976595887126248 24.20906990706901 0 0 -1
10 1 10.06397949950799 2.094570113082077 0.12509778986181638 0 0 0
11 1 9.975826765290362 24.268495818912896 2.126788325232923 0 -1 0
12 1 8.131237875338618 2.013551086253956 2.032536696607029 0 0 0
31 1 6.102238831024112 3.935338287988464 2.0712583542439735 0 0 0
33 1 8.084471097185855 4.087157826557854 0.02903764760784333 0 0 0
35 1 10.158393843044891 4.033133543255155 2.0205066521356354 0 0 0
150 1 6.074884111567749 1.9902479761120904 4.043676687426201 0 0 0
153 1 8.056078543632516 24.256193655451014 4.194690417141437 0 -1 0
154 1 10.220313656954664 2.0749554746223007 4.140943133204047 0 0 0
177 1 8.119980406348626 4.023651539127009 4.021173558151249 0 0 0
13 1 11.952188176835488 24.27535084653578 0.002024489519110243 0 -1 0
14 1 14.157680300429007 1.9038070898621078 0.06950818681581573 0 0 0
15 1 14.081142554864439 0.03508382936395672 2.0682387120811216 0 0 0
16 1 12.063740771679408 2.0735729412744277 1.963409550171126 0 0 0
17 1 16.07611861312349 24.21924333212347 24.28401893321389 0 -1 -1
20 1 16.18401229048042 1.947719299247895 2.013751343020199 0 0 0
37 1 12.214807454648113 3.957278601221397 24.24846209354285 0 0 -1
39 1 14.272426389273361 3.9670399517973043 2.116774230566536 0 0 0
41 1 16.23445360574505 3.957128566921652 0.009758530833064815 0 0 0
157 1 12.18715736277436 0.13868225661494604 4.091421045091572 0 0 0
158 1 14.172452529706927 2.057071396475367 4.189492468680974 0 0 0
161 1 16.13930156007949 0.005169464157902851 4.035453085517252 0 0 0
181 1 12.19715773576122 4.126220453439918 4.1604747045585775 0 0 0
185 1 16.17967231838989 4.122811264656118 4.154455777793387 0 0 0
18 1 18.22863655629947 1.9809525431583213 0.010065473763933208 0 0 0
19 1 18.256599258130866 24.22046943581303 1.981913498965642 0 -1 0
21 1 20.35864162928318 0.05908930222794877 0.04247634329609182 0 0 0
22 1 22.403142193470398 1.982837987840238 24.278919474556865 0 0 -1
23 1 22.40301968193038 0.13616109320351505 1.9823864838379057 0 0 0
24 1 20.200485464620687 2.004890522220225 2.0817349280967408 0 0 0
43 1 18.19893835550012 3.9765645014624202 2.043891477864403 0 0 0
45 1 20.235184015559344 4.085063883420423 24.299812232029716 0 0 -1
47 1 22.278851635332767 3.9908160110951 2.0915220575599722 0 0 0
162 1 18.172165361295427 1.981366497167417 4.072472844165569 0 0 0
165 1 20.337229828162396 24.279678730962193 4.079362813122226 0 -1 0
166 1 22.39827634885682 2.0564405773424648 4.096110639126538 0 0 0
189 1 20.197775054469922 4.014596537611897 4.021129549117787 0 0 0
26 1 2.0665273734782845 6.321759771284657 24.276634146439534 0 0 -1
28 1 24.25703652603493 6.1274447164023265 1.8989668754190767 -1 0 0
32 1 4.1129277535450015 6.134232371323513 1.9478234075097611 0 0 0
49 1 0.13130659513332152 8.12608477350734 24.189056766947598 0 0 -1
50 1 2.1382446756360642 10.063189318767352 0.07988647560400039 0 0 0
51 1 1.9909344968534601 8.050099700498897 2.047444208521783 0 0 0
52 1 24.22110672138222 10.206370625020078 2.036727465509207 -1 0 0
53 1 4.0431252036387795 8.15706597172801 24.22741824279133 0 0 -1
56 1 4.029716982647791 10.068718899799585 2.1028763770151153 0 0 0
170 1 2.0388387004783435 5.849489667197903 3.9440319535800654 0 0 0
193 1 0.13145884642447048 8.071137730383953 4.050483585798885 0 0 0
194 1 2.056726723788743 10.156519049976334 4.198742985284369 0 0 0
197 1 4.001062593100754 8.087422382640296 4.082898971034308 0 0 0
30 1 6.179147371138609 5.926400562550643 24.280323612171333 0 0 -1
34 1 10.173395084033988 5.9863708225511205 24.286719031013128 0 0 -1
36 1 8.013075810941139 6.065776883499271 2.0826431987116374 0 0 0
54 1 6.070467284745405 10.115099604380504 24.29819005565114 0 0 -1
55 1 6.017381174967481 8.046610561140943 1.8862282625989466 0 0 0
57 1 8.183998464059039 8.039975310733976 0.003930152723247339 0 0 0
58 1 10.018067098691908 10.202182703064402 24.242481718554632 0 0 -1
59 1 10.172907533660835 8.1121551078906 1.9230954872970683 0 0 0
60 1 8.16851459548135 10.046481190614708 1.9979206704509105 0 0 0
174 1 6.105329181101363 6.09476539392976 4.12316745640984 0 0 0
178 1 10.124110511333056 6.112417053754601 3.973718597414321 0 0 0
198 1 6.200987509682873 10.092188799933336 3.939810374320613 0 0 0
201 1 8.11658191176769 8.03814401979833 3.9398828363774694 0 0 0
202 1 10.074421640782955 10.043344561747615 3.9503316583783175 0 0 0
38 1 14.129529890987357 6.1494915804400705 0.02960807846674688 0 0 0
40 1 12.174674488679361 6.008301082653599 2.0411546375929213 0 0 0
44 1 16.188315581800325 5.98300564306076 2.0735043282183665 0 0 0
61 1 12.16131264208155 8.2751852412726 0.07730792098200823 0 0 0
62 1 14.416964891220161 10.17730371120307 24.24859292482947 0 0 -1
63 1 14.207948082093699 8.01555936379424 2.1177760916920447 0 0 0
64 1 12.259434014816925 10.200850282558061 2.1603243553000393 0 0 0
65 1 16.10879939095861 8.045843034702107 24.26048904832535 0 0 -1
68 1 16.244342502765743 10.167852783195244 2.081876894117052 0 0 0
182 1 14.22152184518218 6.141696403521333 4.113897265451417 0 0 0
205 1 12.189041544591012 8.15696889099661 4.077087789663098 0 0 0
206 1 14.170817649239822 10.186696420080388 4.152069237959701 0 0 0
209 1 16.311099559676112 8.147230199164511 4.057873909697718 0 0 0
42 1 18.203915659420485 6.097346542239607 0.006121357544777351 0 0 0
46 1 22.297215731774866 6.001552027130956 24.148148485406608 0 0 -1
48 1 20.285992937883453 6.012972251174247 1.9915409081654352 0 0 0
66 1 18.254449007423993 10.075404186796582 0.0498738073701165 0 0 0
67 1 18.15342333459029 8.12492144785411 1.9567414887627606 0 0 0
69 1 20.292117742350776 8.061087057001684 24.29355869670082 0 0 -1
70 1 22.391265923739596 10.13019575094632 24.267511885889114 0 0 -1
71 1 22.356029729960536 8.10123736891479 1.962401294083547 0 0 0
72 1 20.31339648400342 10.07232008300523 1.919272166903058 0 0 0
186 1 18.214260454847793 6.155644262330084 4.010273635197885 0 0 0
190 1 22.206315626210003 6.045037089862621 3.947317194584946 0 0 0
210 1 18.160486236933465 10.212707318090164 4.138313150513846 0 0 0
213 1 20.291304326758837 8.14746812731371 4.071345171050025 0 0 0
214 1 22.288934113663622 10.146954944922278 4.1159215016046335 0 0 0
73 1 24.290440947636604 12.152313808484136 24.278380812987816 -1 0 -1
74 1 2.01822433026838 14.260254549882697 24.122269090003513 0 0 -1
75 1 1.993386405493774 12.138108299859896 1.9693534662312695 0 0 0
76 1 0.047769191937091234 14.085730078864518 2.0647734281036074 0 0 0
77 1 4.046621342990755 12.29221127341094 0.08050429188166477 0 0 0
80 1 3.9626682061454823 14.131009581267916 2.116488410810209 0 0 0
97 1 0.06717671993382515 16.232345920735277 24.270163027257414 0 0 -1
99 1 1.979584214771362 16.292797441879525 2.0373235940449055 0 0 0
101 1 4.039154490608014 16.208523702551755 24.248728710465237 0 0 -1
217 1 24.29045484456342 12.146351919662692 4.140791197349057 -1 0 0
218 1 2.1006916666497086 14.082037894654798 4.138472082528202 0 0 0
221 1 3.9949388207616368 12.146846031556555 4.001278389655141 0 0 0
241 1 24.28612712719299 16.23847814802055 3.9825703493415685 -1 0 0
245 1 4.032187802853179 16.284903191713457 4.122283227969947 0 0 0
78 1 6.093814706696889 14.084519551924089 0.11489387153735947 0 0 0
79 1 6.0411892322922505 12.161338461017937 2.149953435427786 0 0 0
81 1 7.972591420646345 12.13107361697574 0.0950305376344827 0 0 0
82 1 9.939700524108382 14.150629883543962 24.241807536342137 0 0 -1
83 1 10.073086462408623 12.143828005318158 2.023639570324816 0 0 0
84 1 8.0894639389135 14.21131288825765 2.032527171757828 0 0 0
103 1 6.052630887614964 16.259892373988368 2.0101192605966354 0 0 0
105 1 8.054157011069082 16.19193872170169 0.05617888129461789 0 0 0
107 1 10.115325687068497 16.182722646216476 1.9365399527686578 0 0 0
222 1 5.934488223117398 14.264788807435997 4.050663142037406 0 0 0
225 1 8.090988231756628 12.26812436711435 3.9003288037330566 0 0 0
226 1 10.081292595460795 14.214459898389084 4.155549710819017 0 0 0
249 1 8.014399780433484 16.173655006863704 4.150871741403843 0 0 0
85 1 12.086280447358758 12.030345029671333 0.07803851390178144 0 0 0
86 1 14.108280183318199 14.207583196372003 0.1974714818613352 0 0 0
87 1 14.08502509193522 12.18119328463856 2.1005350689275897 0 0 0
88 1 11.966910296619067 14.176655488039309 1.9553836135627352 0 0 0
89 1 16.393532768372598 12.101560031925786 24.18090851468726 0 0 -1
92 1 16.156201636941528 14.042340836411283 2.1241373439067575 0 0 0
109 1 12.169173080438892 16.22078683075629 24.251819735629674 0 0 -1
111 1 13.977914391013977 16.1433558527786 2.1314968720093064 0 0 0
113 1 16.181185714450177 16.174497792488626 0.026679365607371792 0 0 0
229 1 12.028191495983803 12.11483724654108 4.0295758300602795 0 0 0
230 1 14.055975336435937 14.19219157689894 4.047563001716806 0 0 0
233 1 16.09675193203528 12.198427276883779 4.061805074704605 0 0 0
253 1 12.160218719306766 16.17395196840092 4.183448624712209 0 0 0
257 1 16.18639351012341 16.19409082556893 4.0338481669688 0 0 0
90 1 18.213025017594354 14.160852585529716 24.289710796136866 0 0 -1
91 1 18.266240870742617 12.164912150950494 2.0645664407166993 0 0 0
93 1 20.36379113318124 12.132552746273957 24.250995706384366 0 0 -1
94 1 22.286543107010083 14.121402448874177 0.1270048438204717 0 0 0
95 1 22.345589422747853 12.160974863273118 2.039155646625393 0 0 0
96 1 20.17844863992114 14.116332328278405 2.064593473858165 0 0 0
115 1 18.1945612305273 16.155397494827717 1.9889651727021285 0 0 0
117 1 20.17178580727211 16.168055713808176 24.259852049310048 0 0 -1
119 1 22.22853562000994 16.041524292261776 1.978745159935472 0 0 0
234 1 18.13642870832955 14.210299313394877 4.114544779547204 0 0 0
237 1 20.216734661294446 12.17157009268429 4.05227321834836 0 0 0
238 1 22.289072916420675 14.223554671531804 3.9342197142635524 0 0 0
261 1 20.217899642978036 16.259390405719873 3.9883311209479078 0 0 0
98 1 2.1151095127018205 18.162369612049485 24.226408574548557 0 0 -1
100 1 24.265002234327486 18.34309033546977 1.9930513439816193 -1 0 0
104 1 3.9762298368528017 18.208122067747162 2.0342310417559823 0 0 0
121 1 24.2861276350791 20.324975626271417 24.231277197008584 -1 0 -1
122 1 1.9954977456242013 22.31512873352309 0.01973864542582907 0 0 0
123 1 2.0502140574672554 20.233152304913 2.0768518143665986 0 0 0
124 1 24.270112923312418 22.245060647977887 2.0297786953225736 -1 0 0
125 1 4.05485145648009 20.33444462130118 0.03576339701284004 0 0 0
128 1 3.997469998032941 22.31704650323566 2.1350148814750063 0 0 0
242 1 1.9462420520814245 18.215030250148892 4.00133530025083 0 0 0
265 1 0.1675738395521101 20.274685459198064 4.185125895433453 0 0 0
266 1 2.1129102024717024 22.386986379008516 4.10717428652723 0 0 0
269 1 4.071334147517446 20.305718534711303 4.0654971814514855 0 0 0
102 1 6.026985607685918 18.361150531095134 0.014639438553432377 0 0 0
106 1 10.157170909600472 18.27061472449219 24.225741629775584 0 0 -1
108 1 8.113005407019543 18.24040879173403 2.111115268346024 0 0 0
126 1 6.178641775739382 22.253922818754088 0.04579019043639439 0 0 0
127 1 6.126281587605884 20.270557075529567 2.0768681357487964 0 0 0
129 1 8.084498984612464 20.19655058999312 0.08188253951425965 0 0 0
130 1 10.076992436472226 22.277535436940877 0.012065053795038638 0 0 0
131 1 10.147516161851492 20.207310541294856 1.9941494110374858 0 0 0
132 1 8.106460449221858 22.352049612675568 2.0725704165164496 0 0 0
246 1 5.996836660005729 18.24527165308818 4.068616841269947 0 0 0
250 1 10.120490723832171 18.198138375753373 4.081391414809443 0 0 0
270 1 6.036472127809936 22.208779212773425 4.065996987653436 0 0 0
273 1 8.136464731182405 20.212535843071397 4.041398366885692 0 0 0
274 1 10.085904172528661 22.388842930713178 4.111169766393147 0 0 0
110 1 14.070507083259372 18.1074784559099 0.05218971479279439 0 0 0
112 1 12.044859603412712 18.170657937457246 2.042522308755575 0 0 0
116 1 16.153138828671768 18.16460330421676 1.9840604081302369 0 0 0
133 1 12.0698437870868 20.28734495053898 0.025627435398943646 0 0 0
134 1 14.026418912526081 22.273640911396463 0.11630943477385197 0 0 0
135 1 14.192531314722228 20.23557829532425 2.0482159400369295 0 0 0
136 1 12.092222241924633 22.315587161580197 2.126002737067519 0 0 0
137 1 16.200902348183597 20.331661904224827 0.05453253302380405 0 0 0
140 1 16.21839835001614 22.267044023504752 2.1043074136356057 0 0 0
254 1 14.148586015689599 18.31830680447767 4.00575187126075 0 0 0
277 1 12.075176742928088 20.224979757450196 3.993194269651761 0 0 0
278 1 14.068716135231464 22.28747841895852 4.088575355615381 0 0 0
281 1 16.252532192804576 20.311971693770225 4.03182435375822 0 0 0
114 1 18.237346539818713 18.22232536270764 24.29953789507737 0 0 -1
118 1 22.346885984438245 18.299326845176644 24.287447308401102 0 0 -1
120 1 20.334940360036395 18.192831106903366 2.0090728858269853 0 0 0
138 1 18.21540396809919 22.37039343863771 0.05534728274150424 0 0 0
139 1 18.180024308484697 20.38927173962595 1.9765378473608577 0 0 0
141 1 20.202259831806376 20.22714317278007 0.030168958077677326 0 0 0
142 1 22.282278712430745 22.18920264174635 24.247759355435832 0 0 -1
143 1 22.310503377132452 20.301459886749928 2.0223795487820455 0 0 0
144 1 20.307910838894568 22.35436252377244 1.986894673243384 0 0 0
258 1 18.226194990616367 18.29224553125307 3.9627961475641715 0 0 0
262 1 22.369274483209036 18.312503166728526 4.031685642689804 0 0 0
282 1 18.351956642789094 22.29637694839274 4.150849116964527 0 0 0
285 1 20.225620702348486 20.366614609753288 3.9528947253617677 0 0 0
286 1 22.36342843393151 22.288351459703193 4.037951019648515 0 0 0
147 1 2.005872101744616 0.028257686877253718 5.9328291332527465 0 0 0
148 1 0.09338632682375671 1.848938827530703 6.051463346508133 0 0 0
152 1 4.119100089889646 1.8707346264316635 6.1093919101864715 0 0 0
171 1 2.0910078550546793 4.041526314773343 5.9425557499150745 0 0 0
289 1 0.052748532527371 24.27848074303379 8.003298169452371 0 -1 0
290 1 1.9288891592450585 1.9701254609001415 8.126073854743783 0 0 0
291 1 2.0793321063014742 0.02396182936401304 10.186763828990124 0 0 0
292 1 24.271363036735348 1.9903409006089374 10.210477271073444 -1 0 0
293 1 4.058213725260565 24.245877945764587 8.02894541734642 0 -1 0
296 1 4.062227543518126 1.8136462986676736 9.960982597993093 0 0 0
313 1 0.08119021667032668 3.961584042369232 8.067769077690796 0 0 0
315 1 2.0149686122268533 4.052210104670639 10.082895373428876 0 0 0
317 1 4.021852354155966 3.970904081510798 8.158515047009988 0 0 0
151 1 6.102416935346509 24.19541191079128 6.071055480447965 0 -1 0
155 1 10.01807128538051 0.02750771036835913 6.085648828130886 0 0 0
156 1 8.02345652348439 2.0733482304042283 6.076717201184153 0 0 0
175 1 6.078897137029232 4.064249961899668 6.183890084449549 0 0 0
179 1 10.06801070951877 4.101126153235033 6.1354758304986525 0 0 0
294 1 6.189962595764309 2.0391427713619907 8.120446640847275 0 0 0
295 1 6.031240845972498 24.193360847662145 10.105688197113757 0 -1 0
297 1 8.009758115362386 24.198761940201354 8.177998450232996 0 -1 0
298 1 9.914764609152856 1.9669658425203373 8.094944073309147 0 0 0
299 1 10.068655654348452 0.06739284063742172 10.09155059278765 0 0 0
300 1 8.006132450742877 2.0588322387916516 10.180408279049189 0 0 0
319 1 5.976404018183066 3.9810439739949857 10.056345739848817 0 0 0
321 1 8.12138589124585 4.139018639224714 8.084614762021758 0 0 0
323 1 10.10100856461091 4.035584333214291 10.131351627492958 0 0 0
159 1 14.229856634958486 24.295714398307844 6.1772799284996465 0 -1 0
160 1 12.023307312887951 2.042608248151569 6.238907112744072 0 0 0
164 1 16.143314904755975 2.020651236176628 5.978541313143671 0 0 0
183 1 14.062258645808448 4.03344097101803 6.058859081811267 0 0 0
301 1 12.168433607435267 0.024239292834067266 8.192080340133566 0 0 0
302 1 14.325049347482732 1.9867852498593552 8.115193110167635 0 0 0
303 1 14.155962495327582 24.20714053061048 10.13631343147657 0 -1 0
304 1 12.105836969372081 1.9939682222904165 10.056759165138237 0 0 0
305 1 16.301230879565654 24.228643203949733 8.1616091464944 0 -1 0
308 1 16.206394824860688 1.9625487535261497 10.236042381449455 0 0 0
325 1 12.172841889326687 4.045286664645052 8.144043557693381 0 0 0
327 1 14.214546726023013 4.093744534150315 10.139363022935827 0 0 0
329 1 16.115011648927684 4.097137714076142 8.073078363812911 0 0 0
163 1 18.16142573706211 24.156235570530843 6.0989164662822075 0 -1 0
167 1 22.386370734699735 24.20251582210286 6.179027804466831 0 -1 0
168 1 20.258015156693485 1.884085721840166 5.949683980849309 0 0 0
187 1 18.254137978274702 4.063290886142803 6.02181356803503 0 0 0
191 1 22.196220409421038 4.0880479964776315 6.211971267602326 0 0 0
306 1 18.08425164925345 2.125522257169481 8.038585482734232 0 0 0
307 1 18.32410577396045 0.028687214181585655 10.162429565671584 0 0 0
309 1 20.276754157414665 0.013086236894389956 8.121904034131612 0 0 0
310 1 22.282591320883817 2.0962689887047183 8.087791391755985 0 0 0
311 1 22.42259742330237 0.06150183861837188 10.033794796729019 0 0 0
312 1 20.25299799494972 2.038770356902361 10.128407083127469 0 0 0
331 1 18.041848548753293 4.120042653658482 10.231159335399541 0 0 0
333 1 20.202772934675835 3.798073425192899 8.118069140586716 0 0 0
335 1 22.22057133154212 4.013906173545859 10.100352800125686 0 0 0
172 1 0.16154864571279068 5.945378689523729 6.038065632806435 0 0 0
176 1 3.9744796326599685 6.01799564686664 6.015982457736709 0 0 0
195 1 2.0944579158388152 8.106575277882401 6.198918638699746 0 0 0
196 1 24.179913336051143 10.098071450645488 5.983148392453294 -1 0 0
200 1 4.142160660628922 10.292958093052265 5.955674444414645 0 0 0
314 1 2.110824344508404 6.042857502254797 8.178851162524404 0 0 0
316 1 0.044183706887915605 6.0666638456627044 10.189709827436024 0 0 0
320 1 3.9513409407479827 5.943207934672877 10.154210762114806 0 0 0
337 1 0.06383246044527188 8.032862586381608 8.148087275382297 0 0 0
338 1 1.9793620730959196 10.138904016566595 8.115555943122928 0 0 0
339 1 2.0693613043892154 8.261064644454809 10.191897942862337 0 0 0
340 1 24.258379342092873 10.032940298559243 10.236620616266809 -1 0 0
341 1 3.9449698988605366 8.006927072525416 8.13993120174744 0 0 0
344 1 4.193896437942493 10.12492668206371 10.24606939483824 0 0 0
180 1 8.027100129909163 6.026044678819237 6.056808707547444 0 0 0
199 1 6.046609626117644 8.10289903798182 6.055547472276336 0 0 0
203 1 10.075368561207716 8.109609210653232 6.014550532804554 0 0 0
204 1 8.139193673096667 10.162442340332387 6.002277500077604 0 0 0
318 1 6.084316825104934 6.158742839134961 8.090950934725365 0 0 0
322 1 10.198645089894294 6.041445310628498 8.11349075515377 0 0 0
324 1 8.078151478920143 6.170313711191282 9.998884427661805 0 0 0
342 1 6.170302671556871 10.201215478811372 8.076624583167684 0 0 0
343 1 6.013368544692088 8.027891810433918 10.167475413058293 0 0 0
345 1 8.066922454584091 8.219144053939468 8.019526328599973 0 0 0
346 1 10.1503866611783 10.146042907034433 8.164813520461315 0 0 0
347 1 10.17790544559702 8.187829324391734 10.143142286568619 0 0 0
348 1 8.059325631450598 10.090719808378195 10.107905959080508 0 0 0
184 1 12.175814724221922 6.104549416064979 5.97241538596144 0 0 0
188 1 16.24846733035739 6.200058678605619 6.059009351359064 0 0 0
207 1 14.144783256496838 8.138180397644781 6.050218144200443 0 0 0
208 1 12.071767228718528 10.164119820128695 6.141722674750237 0 0 0
212 1 16.178976035469418 10.052141366868513 5.9955979844858724 0 0 0
326 1 14.215716923152357 6.103075068671124 8.145583005798304 0 0 0
328 1 12.154785008467972 6.103911399281304 10.088238416951379 0 0 0
332 1 16.174281369579045 6.050325125947756 10.145457080857799 0 0 0
349 1 12.12852286917322 8.055979587163387 8.042907659759445 0 0 0
350 1 14.149700500935916 10.155115807288407 8.111381028771921 0 0 0
351 1 14.15713084621019 8.136549498978113 10.15944488369934 0 0 0
352 1 12.20907091650354 10.115206913556625 10.126471683757117 0 0 0
353 1 16.136253253138886 8.071891967909643 8.12301291638457 0 0 0
356 1 16.25305344791021 10.049761549944336 10.181959216628464 0 0 0
192 1 20.21378205843273 6.057571771232969 6.118151637845273 0 0 0
211 1 18.240851970108057 8.153987328233526 6.020156396316495 0 0 0
215 1 22.350066678432785 8.03943039314634 5.987503007660874 0 0 0
216 1 20.17958021059687 10.11403358716235 6.138333088756418 0 0 0
330 1 18.16971187887965 5.986371176826051 8.075069625265526 0 0 0
334 1 22.388316431857053 6.047112196422169 8.073727289422022 0 0 0
336 1 20.220693893249297 6.119764974049192 10.040605377446283 0 0 0
354 1 18.197209356186182 10.144970524916038 8.104309086674625 0 0 0
355 1 18.177303599861364 8.02301383149469 9.91470739306363 0 0 0
357 1 20.335516243243433 8.087005151433173 7.97050139202136 0 0 0
358 1 22.292968616970306 10.074929684743255 8.063331820189417 0 0 0
359 1 22.229504526901472 8.011060834448728 10.059208917252231 0 0 0
360 1 20.253979571873813 10.075983741236929 10.111683296893577 0 0 0
219 1 1.9568413430766438 12.155002023639845 6.154990737101404 0 0 0
220 1 0.049467405015752364 14.254486108244448 6.151374311523834 0 0 0
224 1 4.065763964638782 14.242849039354391 6.088001665990091 0 0 0
243 1 2.0921943486039662 16.24574093386006 6.013687788937322 0 0 0
361 1 0.05826562314815379 12.082913056901562 8.295651713802378 0 0 0
362 1 2.118125214652162 14.272178047147957 8.052089433416029 0 0 0
363 1 2.0104169656326105 12.099569464840634 10.17248438333651 0 0 0
364 1 0.05329750939589002 14.255612876803426 10.097203010846288 0 0 0
365 1 4.241776494113461 12.107590198078785 8.146703451064884 0 0 0
368 1 3.959548166215143 14.104668971906307 10.09305192809494 0 0 0
385 1 0.15511557516181582 16.166457017524944 8.17422833849284 0 0 0
387 1 2.076239938776952 16.268207111959914 10.241855273660663 0 0 0
389 1 4.0272670213079484 16.25944921113849 8.150462069874596 0 0 0
223 1 6.156445959754928 12.163002838837546 6.053444257771304 0 0 0
227 1 10.176824659052043 12.083684854730176 6.041789972472605 0 0 0
228 1 8.1114037623969 14.253154002121402 6.119300991831284 0 0 0
247 1 6.093579915829151 16.284461642599904 6.146795310425915 0 0 0
251 1 10.128816546597209 16.263218970943498 6.177121368528648 0 0 0
366 1 6.1520677566492905 14.133359814169824 8.119703138875828 0 0 0
367 1 6.132167511189226 12.11810045122292 10.165864841958982 0 0 0
369 1 8.14988326845644 12.200621205096905 8.021776625736047 0 0 0
370 1 10.127337581192016 14.07035014873256 8.17374413071244 0 0 0
371 1 10.109695913279994 12.031809737167624 10.094587616672591 0 0 0
372 1 8.17180356874127 14.210522394730104 10.04508162840506 0 0 0
391 1 5.901602138769174 16.083863295201034 10.101888202493466 0 0 0
393 1 8.152482101787657 16.267005335201006 8.106298589478612 0 0 0
395 1 10.09477326019114 16.258270020906775 10.017020599994034 0 0 0
231 1 14.036921638437697 12.18357953228163 6.112099282388712 0 0 0
232 1 12.123474589729794 14.169271793362512 6.014825373646093 0 0 0
236 1 16.072073324799497 14.034555007887107 6.234990110191353 0 0 0
255 1 14.2616639524159 16.28790808373199 6.135824596263337 0 0 0
373 1 12.289423812841026 12.252258356071865 8.084495392599772 0 0 0
374 1 14.156791125515541 14.163429945808893 8.243440980049234 0 0 0
375 1 14.129140866910285 12.166001109305832 10.272246228740613 0 0 0
376 1 12.117227904230527 14.089962994682555 10.20656597937901 0 0 0
377 1 16.09067582787212 12.064658698358926 8.122106300813552 0 0 0
380 1 16.25771563514906 14.097889605448497 10.043620037697766 0 0 0
397 1 12.219596178806588 16.07449967409236 8.127306480887492 0 0 0
399 1 14.037509890972611 16.244484668098753 10.106131307385288 0 0 0
401 1 16.146838300572057 16.180571273094515 8.107107177814262 0 0 0
235 1 18.126042773535698 12.234318922034541 6.139211164254676 0 0 0
239 1 22.23731739694639 12.268582206013502 6.103687493439379 0 0 0
240 1 20.24194191273023 14.18334350840386 6.103973745307091 0 0 0
259 1 18.215344592305804 16.216719721825157 5.963114288337304 0 0 0
263 1 22.292364718040304 16.170038996069035 6.10988777815683 0 0 0
378 1 18.317918448709783 14.207911529215535 8.042091498078491 0 0 0
379 1 18.25002743224999 12.055044604829957 10.194301255617052 0 0 0
381 1 20.290427722785633 12.208136834516491 8.049465580286254 0 0 0
382 1 22.29472400330111 14.203713342745637 8.087732367957592 0 0 0
383 1 22.254860942425555 12.202831141857729 10.215693662543847 0 0 0
384 1 20.208744579053675 14.277184728836408 10.119677392992674 0 0 0
403 1 18.297189220216932 16.38167939102314 10.065396447649771 0 0 0
405 1 20.250039941549527 16.34850662818721 8.011792433368736 0 0 0
407 1 22.349869708238632 16.229096835012744 10.104555618419502 0 0 0
244 1 24.217577874814243 18.16214424895395 6.036365443939889 -1 0 0
248 1 4.066488363015175 18.309584580905664 6.137222934835518 0 0 0
267 1 2.1000167512364976 20.193403684091493 6.107490104810019 0 0 0
268 1 24.29997339014719 22.224373742871506 6.126967787638602 -1 0 0
272 1 4.049560406547884 22.24580360019378 6.191010623388814 0 0 0
386 1 2.057903020746071 18.1821537591133 8.207323259722411 0 0 0
388 1 0.003571162606259344 18.22841832069666 10.151654801890432 0 0 0
392 1 4.049044596999987 18.263395000267362 10.23562869394959 0 0 0
409 1 24.273741191890164 20.274898589349846 8.160859046998908 -1 0 0
410 1 2.1549310666754864 22.218517306917295 8.093380220381901 0 0 0
411 1 2.0319532948018924 20.20559809020713 10.15898058156454 0 0 0
412 1 0.0452274468049364 22.306333221295787 10.078813846069764 0 0 0
413 1 3.959903610521882 20.175178355202746 8.139501755722481 0 0 0
416 1 3.982251884604838 22.27473801336954 10.077355924931359 0 0 0
252 1 7.986463627040208 18.234823395137344 5.9967883038728775 0 0 0
271 1 6.0859758967420605 20.216583738205713 6.082795986308422 0 0 0
275 1 10.293100600466813 20.20522611079941 6.031661436877376 0 0 0
276 1 8.131743812362473 22.111378907497997 6.113853113562919 0 0 0
390 1 6.006491497700754 18.346762310772466 8.216912259426065 0 0 0
394 1 10.109823222877804 18.215323998711266 8.019282036601036 0 0 0
396 1 8.046800664601204 18.29489742993133 10.061849093821266 0 0 0
414 1 6.039532151881902 22.17362132953393 8.063101387458444 0 0 0
415 1 6.063089674859347 20.392707656181145 10.19150778892947 0 0 0
417 1 8.287042221034602 20.294766406039635 8.048701606727567 0 0 0
418 1 10.130821983117688 22.3313816559967 8.130494114062143 0 0 0
419 1 10.002820676030504 20.1936035511288 10.207253361705263 0 0 0
420 1 8.122509605030354 22.277241438809558 9.999457063604604 0 0 0
256 1 12.196267325730995 18.15080298605744 6.148333362921122 0 0 0
260 1 16.27352750786888 18.194443756458586 6.023118278296413 0 0 0
279 1 14.045346192389465 20.266860749809624 5.98607606647888 0 0 0
280 1 12.071517306753272 22.291433663737408 6.141133858388357 0 0 0
284 1 16.152677313058884 22.155907000974768 6.046874201453049 0 0 0
398 1 14.095225707621148 18.38237380461608 8.095699332682846 0 0 0
400 1 12.104940542954774 18.32955643883635 10.117398085049677 0 0 0
404 1 16.15268941445376 18.230728672794957 10.217455889534738 0 0 0
421 1 12.054722113466287 20.267746323284015 8.129601222509567 0 0 0
422 1 14.159346029224757 22.186207306796454 8.05074070597286 0 0 0
423 1 14.129075526030986 20.273247411625512 10.14113720083654 0 0 0
424 1 12.215413311648847 22.242510754119127 10.153930214612547 0 0 0
425 1 16.180559557547916 20.21629532046056 8.06224330853055 0 0 0
428 1 16.239293498299293 22.244700296264725 10.201508189195685 0 0 0
264 1 20.22481768673636 18.288995640812807 5.949686394028643 0 0 0
283 1 18.255388582867212 20.26493507027057 6.011947940000185 0 0 0
287 1 22.241549889450788 20.282778179367085 5.975608047457637 0 0 0
288 1 20.306476261379665 22.18953665633817 6.215664767920248 0 0 0
402 1 18.174591892990872 18.175862070210183 8.026040030966058 0 0 0
406 1 22.25673049568333 18.255179971000608 7.922504176478068 0 0 0
408 1 20.2854796514915 18.213667377158007 10.066689594673361 0 0 0
426 1 18.26829049183497 22.247917290708592 8.190736457075282 0 0 0
427 1 18.22591861375566 20.157657863563752 10.050422336845912 0 0 0
429 1 20.333709215761687 20.20404156671054 8.06445428406052 0 0 0
430 1 22.309927915516365 22.25135537436993 8.238464505837056 0 0 0
431 1 22.197102325493017 20.25261672436581 10.145867041905333 0 0 0
432 1 20.353917465914957 22.273411110722265 10.259029024386415 0 0 0
433 1 0.05051693087308386 0.0931450240523218 12.218039176353725 0 0 0
434 1 2.157396158762159 1.9605508639130746 12.210436588978222 0 0 0
435 1 2.0674360501062705 0.01598033316711944 14.226351477511367 0 0 0
436 1 0.11739492451464034 2.0655052400584353 14.151235974537252 0 0 0
437 1 4.056149139458933 24.2093216298499 12.176097896812637 0 -1 0
440 1 4.187584597627774 2.0720045697564773 14.23661334887115 0 0 0
457 1 0.03482259246627555 3.917677909310917 11.991951431132566 0 0 0
459 1 2.12858617615406 4.15060664797956 14.19362564973722 0 0 0
461 1 4.05559087244808 3.9639648448201976 12.107659373086356 0 0 0
577 1 0.031564069574854074 0.20760346442427374 16.158013659268594 0 0 0
578 1 2.097055227985333 2.0896454439351007 16.090643054778027 0 0 0
581 1 4.082089280482783 24.258395401356434 16.23128359189343 0 -1 0
601 1 0.06826981405067735 4.098490895404154 16.182673245763276 0 0 0
605 1 4.038498867373561 4.056978064307052 16.177846516083317 0 0 0
438 1 6.0670960331888235 1.9981611058161872 12.065792678261511 0 0 0
439 1 6.113213992125992 24.262151847393895 14.154556976475344 0 -1 0
441 1 8.037060399592617 24.172981186911144 12.180828494635799 0 -1 0
442 1 10.246613953903513 1.9837901795893156 12.180239391034457 0 0 0
443 1 10.112714238299466 0.12539638002117193 14.289132949278848 0 0 0
444 1 8.12599879736507 2.0898487191022963 14.190724622539893 0 0 0
463 1 6.005431252105782 4.013342917574289 14.144255078290286 0 0 0
465 1 8.085512005642292 4.021319918251952 12.12701754839458 0 0 0
467 1 10.025890058385794 4.052317908616105 14.092952540967293 0 0 0
582 1 5.933506150979781 2.056074395576251 16.30702703896389 0 0 0
585 1 8.057422418434376 0.08532226498970849 16.22469718630034 0 0 0
586 1 10.126393471379629 2.0648626502840175 16.253484404712573 0 0 0
609 1 8.04775484903757 3.9958055819944485 16.16139189079012 0 0 0
445 1 12.168240167843976 0.10362916554902729 12.14838045886348 0 0 0
446 1 14.137088259051684 2.0878960585568946 12.073904860059395 0 0 0
447 1 14.167314556179994 24.241057600013235 14.078017961232025 0 -1 0
448 1 12.194690489919115 2.0764316180969913 14.239451318752531 0 0 0
449 1 16.180348163813356 24.287193609152094 12.134876545841161 0 -1 0
452 1 16.12756360125108 2.128720970682122 14.211242229008247 0 0 0
469 1 12.084581588232739 4.019408306741461 12.112741099275135 0 0 0
471 1 14.214296215414585 4.0288450503175675 14.247930876792248 0 0 0
473 1 16.161184884064504 4.040724779495049 12.178726869374582 0 0 0
589 1 12.24113112518964 24.287664266760753 16.2533660848553 0 -1 0
590 1 14.266155917970416 2.01856853510429 16.27083170885414 0 0 0
593 1 16.21907360476687 24.286613753324282 16.238496593218027 0 -1 0
613 1 12.195791113302759 4.094766571013014 16.207467284325997 0 0 0
617 1 16.20942818371019 4.067035956122363 16.292442347046375 0 0 0
450 1 18.402485733364596 1.9854337550293706 12.24590707847512 0 0 0
451 1 18.234373836493436 0.035324948165061834 14.33573493082454 0 0 0
453 1 20.32023377069983 0.03317378953389885 12.180967572550692 0 0 0
454 1 22.166504658807124 2.0960017620284432 12.23293504728518 0 0 0
455 1 22.343868089181022 24.2228821857496 14.173740547347506 0 -1 0
456 1 20.254495458852418 1.963437532021657 14.26288005155714 0 0 0
475 1 18.115265932405826 4.099883779895275 14.268239785786754 0 0 0
477 1 20.08529016495617 4.078951900766251 12.217929271672242 0 0 0
479 1 22.36978193930856 4.1211782269791986 14.211078299491824 0 0 0
594 1 18.12342654994601 2.056557620557982 16.236636305348345 0 0 0
597 1 20.333999794257803 24.277721252614185 16.24626346764112 0 -1 0
598 1 22.345563409745008 2.106774391456407 16.083028761403448 0 0 0
621 1 20.316891160238512 3.9769431745780057 16.201076612652436 0 0 0
458 1 2.0335203282002534 6.09730637575218 12.142951141114901 0 0 0
460 1 0.13679471335933796 6.026061731584709 14.137472170494313 0 0 0
464 1 4.046317874140034 6.177903766192613 14.259336320051618 0 0 0
481 1 0.017470387174482037 7.99636964158128 12.31766981660143 0 0 0
482 1 2.0285787243376783 10.118298879575038 12.230961671673677 0 0 0
483 1 1.9972835511967333 8.218271591835975 14.19724568325571 0 0 0
484 1 24.25294543094295 10.189418824548465 14.234881107369889 -1 0 0
485 1 4.066901071379955 8.145085296240497 12.213265736865583 0 0 0
488 1 3.963948180079704 10.17782188890196 14.250536038721494 0 0 0
602 1 2.0866104804949623 6.25871491801309 16.271063195096104 0 0 0
625 1 24.285001554480907 8.0913396331556 16.251345706832854 -1 0 0
626 1 1.8876114991112944 10.131882906791272 16.325927483615526 0 0 0
629 1 4.046097800155369 8.36562433888485 16.214732887623573 0 0 0
462 1 6.088546938626501 6.057189837507623 12.149485045881837 0 0 0
466 1 10.088166221086972 5.990218943886998 12.065162249767775 0 0 0
468 1 8.076990069385793 6.136042786041193 13.948444896795484 0 0 0
486 1 6.067067110662012 10.167776242412769 12.213973364785815 0 0 0
487 1 6.026004067696865 8.156647254910743 14.073822639103073 0 0 0
489 1 8.100270857175856 8.05713451144133 12.066476119218077 0 0 0
490 1 10.116865947124433 10.143318253672282 12.23979049588408 0 0 0
491 1 10.16786119248341 8.082095624388254 14.277027387311172 0 0 0
492 1 8.182802605670556 10.15578000012725 14.24559201423277 0 0 0
606 1 6.087772490923745 6.015251458287076 16.095968486292996 0 0 0
610 1 9.863332932209948 6.091339676884328 16.11659058042515 0 0 0
630 1 6.040901978379692 10.162594793466313 16.16933579403487 0 0 0
633 1 8.02276246379359 8.192337164845668 16.183457803706517 0 0 0
634 1 10.035109867208622 10.21970785701192 16.230783721233276 0 0 0
470 1 14.101417151784874 6.138448752484316 12.17103014732554 0 0 0
472 1 12.033002267529676 6.089413894207853 14.10312817925535 0 0 0
476 1 16.193877383881667 5.974657716722727 14.216669548974956 0 0 0
493 1 12.146044612346085 8.134421368598117 12.107715616856465 0 0 0
494 1 14.217138435128014 10.263556273912506 12.19901033695276 0 0 0
495 1 14.12607204271954 8.153960417747303 14.244470503264086 0 0 0
496 1 12.133831386812144 10.16239973666639 14.269031089831596 0 0 0
497 1 16.139667169647144 8.224369184464146 12.21740958283656 0 0 0
500 1 16.118025151700387 10.182805818360459 14.186356758493373 0 0 0
614 1 14.152700788892798 6.017136204949807 16.294678854239987 0 0 0
637 1 12.11407989142588 8.051258582930336 16.22990782899692 0 0 0
638 1 14.138494185001676 10.093829871359155 16.30644739343404 0 0 0
641 1 16.134097654764815 8.125066545046087 16.119859874743437 0 0 0
474 1 18.138525031062027 6.100086707195695 12.150670574014713 0 0 0
478 1 22.317684805070645 6.005009568784498 12.05470879030639 0 0 0
480 1 20.199489782081613 6.175964626799183 13.971878738590991 0 0 0
498 1 18.229779477725668 10.089541359244706 12.233041419855772 0 0 0
499 1 18.260736427926435 8.033167861216425 14.21605350668417 0 0 0
501 1 20.219369739103545 8.028228325620608 12.006868952844751 0 0 0
502 1 22.27653450483569 10.040010775631831 12.187818049943484 0 0 0
503 1 22.299842514834232 7.976235152014492 14.13287649926579 0 0 0
504 1 20.3129950904397 10.057175822803115 14.210865511951608 0 0 0
618 1 18.324718220349794 5.9702518057561 16.23939110475376 0 0 0
622 1 22.259186727000177 6.059990056876959 16.199427336719893 0 0 0
642 1 18.228020556198693 10.1423292884721 16.12661269601953 0 0 0
645 1 20.291333998692657 8.092391179710434 16.175946986126934 0 0 0
646 1 22.316477160414223 10.113550493299723 16.160993872408305 0 0 0
505 1 24.180530179890862 12.265574724665713 12.1325080231384 -1 0 0
506 1 2.0910783995482696 14.280536650291028 12.176401140494978 0 0 0
507 1 1.940535033478431 12.20349284298996 14.31392334139171 0 0 0
508 1 24.244880738942665 14.101837157935703 14.236838278110717 -1 0 0
509 1 4.013952062126716 12.27329131642546 12.296738723672341 0 0 0
512 1 4.093667789526858 14.326498564471272 14.223715024132474 0 0 0
529 1 0.038038539934447044 16.21211161066528 12.2546610164512 0 0 0
531 1 2.1045824959009654 16.16315179078577 14.252107780058342 0 0 0
533 1 4.059822696506644 16.266809040747518 12.073023318227646 0 0 0
649 1 0.015799729378998192 12.243639908149888 16.26676318766207 0 0 0
650 1 2.0958314759419583 14.232728778770202 16.254205065363326 0 0 0
653 1 3.9374985043712876 12.129644263363806 16.167195700599944 0 0 0
673 1 0.1717514675649724 16.170026516797467 16.230780446077528 0 0 0
677 1 3.9660674751357052 16.257037917095243 16.296626411762603 0 0 0
510 1 6.073879456328927 14.152698095699334 12.0859450489995 0 0 0
511 1 6.125741522756147 12.153335419104748 14.065234484269672 0 0 0
513 1 8.087708248584235 12.245102441114255 12.064850714139414 0 0 0
514 1 10.063564250808076 14.254525023471674 12.128035694103838 0 0 0
515 1 10.081376451293709 12.259906928986348 14.211607681206871 0 0 0
516 1 8.02059118619468 14.215898183352811 14.106457040213996 0 0 0
535 1 6.269770045887284 16.18529174593844 14.158815662216835 0 0 0
537 1 8.019647886323906 16.231622276505977 11.922696228235713 0 0 0
539 1 10.185544225777521 16.230630684167018 14.166714149503656 0 0 0
654 1 6.021287781619119 14.192929420286811 16.068917481335337 0 0 0
657 1 8.008909352859094 12.220458226786203 16.205734623249008 0 0 0
658 1 10.026885266119045 14.034032282677165 16.146909283975745 0 0 0
681 1 8.157659254283029 16.29454918569624 16.095818931433172 0 0 0
517 1 12.083183363090027 12.14931758963207 12.19867207100399 0 0 0
518 1 14.156227403241592 14.244189010407384 12.051281558197607 0 0 0
519 1 14.071616454875688 12.228071552190327 14.265686873226269 0 0 0
520 1 12.199366365861387 14.177427697002491 14.157353460438141 0 0 0
521 1 16.154762375983456 12.126219515303507 12.351846997358143 0 0 0
524 1 16.186066357775285 14.175861843859721 14.15174065471361 0 0 0
541 1 12.0921314529779 16.381312224491637 12.088307059768153 0 0 0
543 1 14.232912183756037 16.186854578544832 14.081960179369672 0 0 0
545 1 16.1455797036741 16.11510860813589 12.019355557764223 0 0 0
661 1 12.073440258857826 12.111517556530725 16.255853269351896 0 0 0
662 1 14.070585583904908 14.153795174011124 16.228134852092353 0 0 0
665 1 16.28459466368007 12.196612905578764 16.223273782801147 0 0 0
685 1 12.133450220794618 16.219125176285843 16.097602735710066 0 0 0
689 1 16.21410305707053 16.005531037048883 16.210858428813918 0 0 0
522 1 18.110796311029535 14.1832163655579 12.182650701760146 0 0 0
523 1 18.294428234583595 12.07488801630731 14.116809535125833 0 0 0
525 1 20.381533345609913 12.13240665363228 12.15653637099533 0 0 0
526 1 22.303086073554994 14.263693924969077 12.059951537946455 0 0 0
527 1 22.23261874151049 12.23565000681275 14.0777528289867 0 0 0
528 1 20.228563958024328 14.079144317011751 14.060075146911673 0 0 0
547 1 18.1819907448165 16.194555042720737 14.106905213535226 0 0 0
549 1 20.208369310145294 16.185531824285864 12.043285636935435 0 0 0
551 1 22.291259305186664 16.206576811545514 14.153010294898948 0 0 0
666 1 18.258666394339528 14.354102149176274 16.139506553023903 0 0 0
669 1 20.21320243331986 12.147824480831524 16.109730145391264 0 0 0
670 1 22.123491924892413 14.086641847121076 16.317426458741952 0 0 0
693 1 20.304219055384333 16.260513404073507 16.14562586014114 0 0 0
530 1 2.000800825549914 18.21512394919012 12.233489137321229 0 0 0
532 1 0.058689932143120224 18.288761249184976 14.241153435744561 0 0 0
536 1 4.12219390803567 18.100074326499136 14.147187796925095 0 0 0
553 1 0.024325584898427094 20.322184151949973 12.177787466709942 0 0 0
554 1 1.9991777548077665 22.214480774172536 12.125067824615307 0 0 0
555 1 2.153989717674301 20.178355415062413 14.22506320930226 0 0 0
556 1 0.07341217699802996 22.343899410835604 14.142462009495794 0 0 0
557 1 4.070970620035971 20.166645559530217 12.17776705672872 0 0 0
560 1 4.083133351068839 22.176507207716913 14.189260581977829 0 0 0
674 1 2.066089413908419 18.278648899029548 16.215822395834987 0 0 0
697 1 0.09492491728037486 20.150774591384682 16.160146040090545 0 0 0
698 1 1.9457458387205713 22.28332063728536 16.12325729894499 0 0 0
701 1 4.135833863297476 20.31269504586892 16.24914162550596 0 0 0
534 1 6.129004319207442 18.172264211241195 12.195029004985184 0 0 0
538 1 9.904596193940051 18.21494344106688 12.098317594153746 0 0 0
540 1 8.094182611523214 18.427739929755898 14.201631563079472 0 0 0
558 1 5.991036301823496 22.33946415086837 12.067178175970527 0 0 0
559 1 6.008486028889686 20.286321051958996 14.08228370040866 0 0 0
561 1 8.123356785895197 20.331261790897535 12.2038921081921 0 0 0
562 1 10.251502141607148 22.393815248045637 12.177225015309746 0 0 0
563 1 10.143329329564425 20.29748236220403 14.242828031390792 0 0 0
564 1 8.00614723279046 22.318935434627658 14.176174456573102 0 0 0
678 1 5.970527935376322 18.181244893760194 16.162883528350985 0 0 0
682 1 10.148600475092017 18.181350032502653 16.119362688247357 0 0 0
702 1 6.0666069688134 22.26673571204152 16.242899712889596 0 0 0
705 1 8.022140026348339 20.259859086097453 16.193446176511856 0 0 0
706 1 10.114030999582946 22.300068320741314 16.223888608549384 0 0 0
542 1 14.040557801862754 18.20475225308954 12.118489312468645 0 0 0
544 1 12.132232558956675 18.178616379921298 14.231237635241015 0 0 0
548 1 16.11095336107019 18.247747991155528 14.068735992336476 0 0 0
565 1 12.013844075745594 20.118298685407225 12.269013781770726 0 0 0
566 1 14.084169640868787 22.167785259960265 12.200132430363572 0 0 0
567 1 14.091471792617364 20.07226838753842 14.204478545494952 0 0 0
568 1 12.175555346030757 22.225214143407126 14.189383429674574 0 0 0
569 1 16.12222660685028 20.279082053671303 12.156669993548153 0 0 0
572 1 16.247332527229048 22.26543865419048 14.234911096002136 0 0 0
686 1 14.206748829164304 18.076967319463996 16.302691095523205 0 0 0
709 1 12.012219672420127 20.216788627453447 16.213179149483565 0 0 0
710 1 14.099076593811018 22.212922902225852 16.259723595930065 0 0 0
713 1 16.248678863975243 20.10801978790487 16.212630673062936 0 0 0
546 1 18.249163896851552 18.26389012131741 12.17603508585683 0 0 0
550 1 22.293595898790077 18.211763119484853 12.226612632901322 0 0 0
552 1 20.30677157940206 18.162497892145552 14.168982815644116 0 0 0
570 1 18.16309439203889 22.301427394783644 12.18321891174962 0 0 0
571 1 18.33528489003128 20.155586309257966 14.17214378826468 0 0 0
573 1 20.27597809335547 20.263421010771804 12.172955149021687 0 0 0
574 1 22.312124400183702 22.35166268115761 12.103069379835079 0 0 0
575 1 22.298129685795757 20.313871353927745 14.01612327644452 0 0 0
576 1 20.213708178893068 22.260296917041863 14.111052556481232 0 0 0
690 1 18.135790738062283 18.134183233592186 16.223780657883953 0 0 0
694 1 22.369302175134653 18.216815506976538 16.06930004171329 0 0 0
714 1 18.317676437047496 22.16541361498266 16.230363987539242 0 0 0
717 1 20.36909252057094 20.23318330078652 16.226284177007365 0 0 0
718 1 22.318486219296496 22.29987625286427 16.171674419913806 0 0 0
579 1 2.080080734924711 0.10091552405464621 18.281713472857376 0 0 0
580 1 24.249985295207303 2.1643142143851044 18.192245746802442 -1 0 0
584 1 3.953545791374011 1.9984068946455962 18.372165840826764 0 0 0
603 1 2.1360608281462277 4.1797303905999135 18.196811153894963 0 0 0
721 1 24.299206896275024 0.011996381889128665 20.13569888959916 -1 0 0
722 1 2.007663235025412 1.97883106580782 20.32466945154459 0 0 0
723 1 2.0821616288526252 24.12243287537619 22.265762132570032 0 -1 0
724 1 24.278237476799855 1.919042850590801 22.13264022845259 -1 0 0
725 1 3.9615803137716243 24.19581251303568 20.28121197150491 0 -1 0
728 1 3.982313339172204 1.961528609873554 22.150482643466184 0 0 0
745 1 0.0948708219162684 4.027621458021479 20.26108445396846 0 0 0
747 1 1.9620670187441343 4.159555906798696 22.340747916078982 0 0 0
749 1 4.03173496095962 4.040693852982365 20.293926958177686 0 0 0
583 1 6.199085030151504 24.206893712202692 18.1709013627613 0 -1 0
587 1 10.194858238262558 0.03937729497351026 18.172990412882704 0 0 0
588 1 8.098238441205586 2.0074340943605473 18.120943950371114 0 0 0
607 1 6.059643185127285 4.083519128519472 18.280762471964053 0 0 0
611 1 10.03488009740942 4.022583134316913 18.33146585729039 0 0 0
726 1 6.126835945471308 1.90945806709264 20.199160459575655 0 0 0
727 1 6.006569109255354 24.256293608812907 22.300103674297272 0 -1 0
729 1 8.046335976672264 24.264484640081015 20.22803892693074 0 -1 0
730 1 10.109804891494361 2.0779990885097526 20.18467958877581 0 0 0
731 1 9.942202221037508 0.08068655376866342 22.14459655209547 0 0 0
732 1 8.044330284458566 2.0918369514720667 22.39838398425941 0 0 0
751 1 6.055019148862742 4.05440976384002 22.35340724320689 0 0 0
753 1 8.078839199297155 4.039121510462935 20.24817039687886 0 0 0
755 1 10.159007976644281 4.051329171466898 22.224394758191536 0 0 0
591 1 14.181908097102907 0.07317379233204721 18.313048304543322 0 0 0
592 1 12.058599600931814 2.1467380976026207 18.27846340751496 0 0 0
596 1 16.320634126638303 1.9687015683401075 18.3169952145292 0 0 0
615 1 14.168035686598225 4.017259980283685 18.242206027629496 0 0 0
733 1 12.08347005479903 24.22527131544575 20.167877809598856 0 -1 0
734 1 14.200592611022584 1.9623326366861338 20.261692793729434 0 0 0
735 1 14.042954620241078 24.22559460821229 22.25337941621859 0 -1 0
736 1 12.169830995038792 1.999380133912413 22.288808965039276 0 0 0
737 1 16.24105039197065 24.230437460445845 20.382693533130738 0 -1 0
740 1 16.10671467709377 1.8886437418995066 22.258246987787114 0 0 0
757 1 12.1769186027118 3.9362514025899507 20.40152862517301 0 0 0
759 1 14.232570112831471 4.155201749384735 22.442513918970647 0 0 0
761 1 16.108849736918714 3.957278002742671 20.270556968991524 0 0 0
595 1 18.166199815416764 24.202348238427284 18.06441539262811 0 -1 0
599 1 22.276472577018467 24.28375644687733 18.097730706058883 0 -1 0
600 1 20.26475423390054 2.006846310983725 18.216199285203217 0 0 0
619 1 18.244606688431546 3.986616497611616 18.302946232979387 0 0 0
623 1 22.396130171492178 4.142686621298572 18.17510774573799 0 0 0
738 1 18.281087284563746 1.9561785429107565 20.35133965342709 0 0 0
739 1 18.3515299567682 0.03963225665550644 22.36142470785257 0 0 0
741 1 20.277892920252096 24.244767776584084 20.18857678645105 0 -1 0
742 1 22.24996243891398 1.8896267185533737 20.08522045418493 0 0 0
743 1 22.260904889720543 24.27144437175689 22.216010872931896 0 -1 0
744 1 20.357800523081217 2.0211765012358613 22.275814368023912 0 0 0
763 1 18.18609426998084 3.945083912878888 22.25748260992613 0 0 0
765 1 20.255617444445942 4.05267301791762 20.334524769426785 0 0 0
767 1 22.38407186276486 4.007202861327207 22.182101970433617 0 0 0
604 1 0.009845533529521614 6.100739447488738 18.204904313729863 0 0 0
608 1 4.11026478154829 6.16563078937781 18.141165318050867 0 0 0
627 1 1.9527987703395668 8.20887061741007 18.325499670804565 0 0 0
628 1 0.05751313914604611 10.189085515783384 18.2528613565897 0 0 0
632 1 4.194464597495646 10.151720105598315 18.34413800578187 0 0 0
746 1 2.0694978054943842 6.102407435774311 20.307810899707363 0 0 0
748 1 0.09152615624785021 6.153394228632687 22.193816484220765 0 0 0
752 1 4.118318345755892 6.077644538887441 22.291872179817638 0 0 0
769 1 24.26305428403123 8.119865394923114 20.27745727577962 -1 0 0
770 1 2.130898504318847 10.055372606269676 20.265569732631565 0 0 0
771 1 2.034748201737034 8.095909697727626 22.171640044198448 0 0 0
772 1 24.287230784499517 10.08204795956637 22.111150632065872 -1 0 0
773 1 4.149221173600568 8.055395284770585 20.371639465298315 0 0 0
776 1 4.108093404783973 10.106329411411316 22.343031396485 0 0 0
612 1 7.968811821641 6.03042711978405 18.1596290316888 0 0 0
631 1 6.05038116023776 8.085556912888837 18.246662254236877 0 0 0
635 1 10.107101367928738 8.067626169993721 18.164374988098732 0 0 0
636 1 7.977248475856462 10.116188379036634 18.132930449432703 0 0 0
750 1 5.999777716199738 6.05844283724458 20.265834807556494 0 0 0
754 1 10.215633740953773 6.026018489711254 20.36890483747615 0 0 0
756 1 8.14482481849877 6.0353531954487565 22.22826695155677 0 0 0
774 1 6.0968134007948285 10.081185542123755 20.22787622595258 0 0 0
775 1 6.219658403321313 8.063013509280129 22.404383432112457 0 0 0
777 1 8.147443812879514 8.09936674280604 20.172960109109688 0 0 0
778 1 10.05693326448337 10.126245230736997 20.229941437817057 0 0 0
779 1 10.095824309035837 8.052051002047708 22.288396644212025 0 0 0
780 1 8.089465205943034 10.200008827803503 22.214700101711525 0 0 0
616 1 12.179504914022592 6.0473458984808826 18.203277977838628 0 0 0
620 1 16.246470406229857 6.064599058334256 18.20251425552594 0 0 0
639 1 14.079198709717476 8.006740201100092 18.281317897707417 0 0 0
640 1 12.107943582692307 10.118228535907468 18.15775598997396 0 0 0
644 1 16.17361348467941 10.062916636641713 18.230895626535144 0 0 0
758 1 14.170762855868356 6.065955214742874 20.258541095888667 0 0 0
760 1 12.195972446507776 6.101354845606136 22.315988912462327 0 0 0
764 1 16.225128432578934 6.072151728186799 22.313720244018196 0 0 0
781 1 12.059243905098977 8.097491790784213 20.287838956764283 0 0 0
782 1 14.14320378695147 10.122968428106315 20.319535805766755 0 0 0
783 1 14.144132927989304 8.10366215559314 22.207317360598196 0 0 0
784 1 12.009406252168107 10.140216070023678 22.212360530241277 0 0 0
785 1 16.166000191274964 8.1803904591585 20.181462052945886 0 0 0
788 1 16.1981683111998 10.068757893577173 22.249696656663865 0 0 0
624 1 20.165739219071195 6.025784557115685 18.215165957612967 0 0 0
643 1 18.2216640097276 8.042458325771266 18.216622627304158 0 0 0
647 1 22.284417767639475 8.113444970788354 18.113155469739315 0 0 0
648 1 20.180886098420107 10.140876936656198 18.020136797724057 0 0 0
762 1 18.273162226396906 6.094927217853246 20.25768335609317 0 0 0
766 1 22.301359104505732 6.068345701275219 20.258855433888023 0 0 0
768 1 20.33612510452569 6.010537472466126 22.1560972273532 0 0 0
786 1 18.211933937700174 10.135716816189467 20.191871694650402 0 0 0
787 1 18.27373999939663 7.937036822400699 22.160030634156616 0 0 0
789 1 20.26836666844117 8.145147037952364 20.121035638347358 0 0 0
790 1 22.145790880020026 10.176490786654346 20.14896658135499 0 0 0
791 1 22.247286785273385 8.1105168717165 22.33733908511641 0 0 0
792 1 20.243630654231467 10.059943837294135 22.177549492005696 0 0 0
651 1 2.130649297702623 12.26487607452239 18.367753989254293 0 0 0
652 1 0.0709088627568841 14.1512464246863 18.24771139808221 0 0 0
656 1 4.112931606737381 14.201200836734733 18.232883091256337 0 0 0
675 1 2.163472986947293 16.243957695217286 18.289542763130964 0 0 0
793 1 0.0035579796005095242 12.104292237773889 20.205667839693618 0 0 0
794 1 2.0275620594576553 14.287339978778217 20.31236644073381 0 0 0
795 1 2.094115163137441 12.155560511240648 22.335792509567817 0 0 0
796 1 24.264051846549382 14.204006985561568 22.311817258326244 -1 0 0
797 1 4.041241008133707 12.118663315568613 20.273524650744232 0 0 0
800 1 4.016583646453374 14.158023780428474 22.19292935955683 0 0 0
817 1 24.1750570527796 16.14327525048413 20.25654318021244 -1 0 0
819 1 2.0818143274409464 16.188403150021003 22.28706400352222 0 0 0
821 1 4.169742627033271 16.35486319198629 20.242852535935548 0 0 0
655 1 6.069326437373015 12.203431957000577 18.167245259792388 0 0 0
659 1 10.059494997639522 12.055118335446748 18.350300562062632 0 0 0
660 1 8.030334518993113 14.27528445154272 18.180353555151537 0 0 0
679 1 6.134992195955521 16.26368966914691 18.111370119544134 0 0 0
683 1 10.061116946501219 16.182724069827703 18.22045854958896 0 0 0
798 1 5.972948442736027 14.209204869045315 20.170214312541354 0 0 0
799 1 6.057453067109112 12.261091831404366 22.237250058904156 0 0 0
801 1 8.025482234095495 12.16963383297011 20.167719808289394 0 0 0
802 1 10.044733448931325 14.263774667342508 20.188690470903396 0 0 0
803 1 9.988142332315833 12.153334377662073 22.13496600194041 0 0 0
804 1 8.056476537084292 14.23850224628408 22.200872577205466 0 0 0
823 1 6.0973420112148435 16.13760378270747 22.297270253249312 0 0 0
825 1 7.9719956116658235 16.19492739819604 20.153892978592623 0 0 0
827 1 10.075428839139533 16.19562238288679 22.239267784318358 0 0 0
663 1 14.278572603448318 12.110359447569307 18.246152969966474 0 0 0
664 1 12.089485872029119 14.135157746678406 18.215734680974567 0 0 0
668 1 16.270259022685675 14.172213788147316 18.15877794934426 0 0 0
687 1 14.216202632575072 16.159169792771664 18.367731975634864 0 0 0
805 1 12.15154420734059 12.210262321370141 20.257232845572275 0 0 0
806 1 14.03846648010916 14.207371714681601 20.206751419112166 0 0 0
807 1 14.135687205508638 12.218043651949717 22.254243781617102 0 0 0
808 1 12.159589993366177 14.199905941381399 22.380609873433396 0 0 0
809 1 16.160593512712257 12.112933639668563 20.256170971601247 0 0 0
812 1 16.1421261440285 14.074536762301218 22.257140742804175 0 0 0
829 1 12.016938583683414 16.177745446705018 20.316146671446027 0 0 0
831 1 14.20105821034179 16.11373094038986 22.163115170519912 0 0 0
833 1 16.251938451788966 16.274735932999707 20.309849137960917 0 0 0
667 1 18.232320782235256 12.171077484480962 18.148359547407885 0 0 0
671 1 22.282223639001003 12.111159640687848 18.2477833712106 0 0 0
672 1 20.23566093280821 14.192224769391265 18.17681093820704 0 0 0
691 1 18.308854650845905 16.23495419981173 18.26588722880923 0 0 0
695 1 22.353213226297697 16.288062180896404 18.05986796560097 0 0 0
810 1 18.284934851198223 14.140138121049663 20.313740480682178 0 0 0
811 1 18.293778828305758 12.161438076985837 22.26497631070659 0 0 0
813 1 20.185242897417364 12.180736269272156 20.193632257742376 0 0 0
814 1 22.405893786235985 14.189269400084164 20.12779637487201 0 0 0
815 1 22.279488888610476 12.009107608997546 22.173871899085082 0 0 0
816 1 20.297269345805997 14.08924861908233 22.243749157382616 0 0 0
835 1 18.278871586586025 16.189833000295092 22.201549226351624 0 0 0
837 1 20.289706834583896 16.17003416757838 20.283111145158646 0 0 0
839 1 22.260862284902945 16.268754746104445 22.22037057277611 0 0 0
676 1 0.0656360430419422 18.207629397778145 18.273578508470827 0 0 0
680 1 4.070839728781994 18.197959742581734 18.333825039802306 0 0 0
699 1 2.0192300246041417 20.25913120128791 18.169871367015933 0 0 0
700 1 0.08815539123345029 22.35242622118867 18.14027544411613 0 0 0
704 1 4.0411140246466255 22.33920808879302 18.221976158748245 0 0 0
818 1 2.049049473981877 18.243395455309866 20.26886162106833 0 0 0
820 1 0.04802209567112685 18.17954725779534 22.188035613653636 0 0 0
824 1 4.1002216389551505 18.1868923069004 22.314693064717716 0 0 0
841 1 0.020380148282098692 20.30184953562504 20.21115359450957 0 0 0
842 1 1.9678114989976971 22.23242601356059 20.204834694916695 0 0 0
843 1 2.108923586811292 20.171357919813445 22.313747904160902 0 0 0
844 1 24.20292284820126 22.24368071676782 22.209184751617542 -1 0 0
845 1 4.085043217489869 20.345650478025284 20.19578623401901 0 0 0
848 1 4.123423691856762 22.211080513340388 22.254886908953125 0 0 0
684 1 8.17836120004373 18.28147976982934 18.28374440894715 0 0 0
703 1 6.021453934146907 20.207596748418748 18.246604227428218 0 0 0
707 1 10.235476567977289 20.1917924735641 18.23109922955194 0 0 0
708 1 8.321110285798023 22.225051767920633 18.154819085865608 0 0 0
822 1 5.95785401551655 18.282608897067586 20.278506717582655 0 0 0
826 1 10.169320737401474 18.17892000884883 20.197931130854396 0 0 0
828 1 8.115373563164232 18.26051876347521 22.206392008581208 0 0 0
846 1 6.156890650982076 22.286051015518975 20.17604390451982 0 0 0
847 1 6.181222159078645 20.193474110985875 22.192359227447522 0 0 0
849 1 8.09641064552047 20.21375129478996 20.240953740361935 0 0 0
850 1 10.034699227615302 22.190068405529907 20.207263260183478 0 0 0
851 1 10.302940599382929 20.209524195151534 22.303906811333466 0 0 0
852 1 8.10313345203232 22.268335131435233 22.330985691067387 0 0 0
688 1 12.11006951492894 18.13400441142641 18.151548697470048 0 0 0
692 1 16.24932708093945 18.17469937104302 18.204444053842746 0 0 0
711 1 14.164928147233747 20.2033719557908 17.971957934356002 0 0 0
712 1 12.108270319168902 22.24578948324958 18.171060332422947 0 0 0
716 1 16.13920753802967 22.242108503152593 18.125992748211072 0 0 0
830 1 14.27267562003067 18.313055827147792 20.21137274415205 0 0 0
832 1 12.243032470551995 18.21626707566693 22.327450339162688 0 0 0
836 1 16.08794781167097 18.26128733430426 22.39626532692204 0 0 0
853 1 12.240654419393106 20.226295211824144 20.1588020613866 0 0 0
854 1 14.091645588945568 22.27839617721207 20.080263389671853 0 0 0
855 1 13.998964962948444 20.325409123364857 22.19713804448721 0 0 0
856 1 12.11659012151206 22.306479844304747 22.22273117294217 0 0 0
857 1 16.26990682961149 20.35154332321063 20.234382190575445 0 0 0
860 1 16.071962544298863 22.280830298802353 22.243695955359225 0 0 0
696 1 20.280415163459146 18.210932456709667 18.243717449045942 0 0 0
715 1 18.301682793945428 20.27752037631389 18.265966952301426 0 0 0
719 1 22.40449384857705 20.17482209965143 18.125332795461713 0 0 0
720 1 20.368413128161055 22.274821266250246 18.25722228545969 0 0 0
834 1 18.318790968512413 18.313293598008094 20.28939619469678 0 0 0
838 1 22.25037647434046 18.265695917295094 20.322311441101647 0 0 0
840 1 20.162803021177492 18.184513406308806 22.258306131149148 0 0 0
858 1 18.206142532371356 22.270485222982302 20.30374808361201 0 0 0
859 1 18.252737027531765 20.244720721681997 22.395669237993708 0 0 0
861 1 20.351894766564296 20.348344335914557 20.248454499000808 0 0 0
862 1 22.404266315245938 22.258810135409593 20.1192181605582 0 0 0
863 1 22.320403272995538 20.267157096819577 22.273405833187145 0 0 0
864 1 20.278107678588725 22.278206438433568 22.343352024740263 0 0 0

Velocities

1 1.2613370706701619 3.1473001094809976 -0.9873627248388149
2 1.5486816069418017 3.0708595074766385 1.6717692313513979
3 -2.0365872729074295 3.3076094685361643 -2.0083112873479263
4 1.5409643966887576 -1.1672395730040863 -3.1032334261025207
5 0.09010292528736522 -1.030082070450793 1.4086252385403633
8 1.0694232505061998 -2.1336035534182867 -0.8083388019773106
25 -0.7940760092604366 1.1596013376854981 -0.04662177510131775
27 1.6795076079925748 -3.0585128973831326 -0.42854604311637207
29 1.3089873660316098 -0.8741372726840041 -0.2964524269999856
145 -1.1107445206262665 2.2933123017225054 -4.221106804565444
146 2.031691711409817 -2.5497441448980793 -4.214535555478606
149 0.24930529159752157 -3.50645907063206 1.7776121257088215
169 -1.2584310489913662 1.564527800728054 -2.128982191495045
173 1.4050020618491736 0.36517080063060703 -0.11549760259348449
6 -1.3625103645742591 -0.4817662133297796 1.1371839364803416
7 -4.999170435892406 -3.2358035008340607 -0.6131965702876426
9 -2.1092564298635934 -6.112416491436074 0.06723366503934344
10 -1.410644716915158 -1.77087192450928 2.912187890829911
11 -4.312516880631469 -2.0995157100608304 -4.181995516006397
12 0.3075477150153656 -3.5529101541707258 -0.027613531484176307
31 -1.9962854792918037 -1.5320200863864246 1.7605543324071156
33 3.035882668544013 -0.1501281451453562 1.1505741740252435
35 0.21442951018185571 -4.360557851849789 1.2292460557725875
150 2.072256548943515 -0.4837878267724387 2.542655427765085
153 -2.2667705743983806 1.894883287436743 0.10601567604729778
154 -6.1747817428819785 1.0113914783004936 0.06680798807167154
177 2.2728485029523715 1.0537965286174014 -0.28939873672286887
13 -3.2582954052555486 0.49513706677897246 -2.1925586747288266
14 1.9102556891264635 -1.9495782760374756 -2.3807711938725333
15 -3.8125595139940973 0.6900052737262385 -2.337656808306969
16 -3.7971321296203966 -2.4598642250499045 0.01621794601870369
17 -1.1980992832761375 1.1375185782477901 -3.575068558167702
20 -0.06589291727841906 3.9363230804311704 -0.5683893640437271
37 4.0296447727468365 2.5263200393862335 -0.6902008070950506
39 -1.2109940873106633 -2.2855654355423614 -1.6153143652604416
41 -1.0441986087620867 3.949205882809486 -1.6684089080031619
157 2.3827704713259266 -1.2604670489121097 -1.2636331524743893
158 -1.7511996084822452 -2.425889617179508 -0.42339408281982327
161 0.431659041661939 -4.259284543170198 -0.06032468262341334
181 -2.403829850999513 4.2004181515366215 1.6696827929926685
185 1.0461493707086962 3.1986686071772663 0.41253871667916037
18 -0.6838551173049932 1.0422530192216017 0.15473245413529915
19 2.080268275490558 -1.9701045773154715 -0.6785497673982325
21 -5.1953288909868895 -1.000172490210355 0.5000097529194412
22 -0.2998953132004708 0.9885990786907775 0.2825678047864211
23 -0.019401092493803063 0.2349159194711719 3.20431205042344
24 0.4868138565511556 0.7882816631203065 -0.344769659385308
43 -1.8127671283247797 -0.25062732711011754 0.4258843364814855
45 -1.7032967717293026 2.665410435913469 0.28335134483017227
47 2.053812714967099 0.2910695959986183 0.559199811096176
162 -2.6460952305611363 -2.5330154410311434 -2.258321538792574
165 1.2956117671803635 2.3785971873670833 0.12360301967668237
166 0.18297630921689925 2.978103748812675 -1.4086160628193454
189 2.042398478052082 1.1314535437047541 1.283706605904531
26 3.559024195620912 0.9686342450497895 0.15252022672126753
28 1.9799619602882035 -1.1173247051769395 0.0015187536057782447
32 1.408673684196998 -1.1716317304066908 -5.664805056054243
49 0.7193115972403016 -1.7357417056603293 1.9251936940459968
50 0.3016087163055393 -0.9663645059722117 2.730810760765379
51 -0.4120734488985671 -0.6236737900511257 -0.7897276062195898
52 2.0130227775446965 -0.36029736716555655 0.9220544598075452
53 0.3751699528247231 1.1122398098604027 -2.3368024297586403
56 3.619277201523244 0.4790728333939315 -0.06181519571614887
170 -3.6571087948240444 2.334548042926236 3.3572062196143744
193 1.2736341799819009 0.49775691898171276 1.1163499472599556
194 2.0085315815631826 1.9264983802178974 0.8786530180978125
197 -2.516122150846134 -0.47532292795362713 -1.456551874592966
30 3.6862965367609144 1.6089350164720553 -0.8564905599286846
34 3.4480317762931003 1.598870554175386 -1.4860178136323048
36 1.7334999991520679 1.8641121471339224 -2.570640885953935
54 -0.9115370632664471 2.10510154798262 -1.633041834326762
55 -0.7625401075389983 0.6290825547090988 2.2347284261793403
57 1.980706892228916 -1.9958831395735537 1.7619270499991255
58 -0.48492535442453943 1.9102999308387507 1.8723586012396825
59 1.0708055686194622 -1.0364676592152458 -1.6135733838897
60 -1.109710359602349 0.6280916099608344 1.4102349417131552
174 -1.4745714330100728 -4.1765194574789515 2.305864677106806
178 -0.9788851583490432 -1.815601718139826 2.509659677485369
198 -0.8450411409566148 4.873525278973888 2.7366954004078994
201 0.21533435928461103 -0.07933101496975158 -0.7246450189490304
202 2.7815017411409815 3.3892315002466544 -2.7385467342358
38 -3.774837636044751 2.524631364310948 -0.7737867950751515
40 -3.024205479453477 1.275579872392797 -2.779828637554176
44 0.6626832013624201 5.663823628013887 3.867557890942421
61 -0.041527528963833965 -0.8523897048399545 0.8882826880042133
62 -3.4323848562102253 -0.3875990276157035 3.7250124669205484
63 0.0544817283801524 0.76535986171533 -2.6697258982225778
64 -1.3367752062971319 -0.28270042097908465 -1.1852705818096252
65 0.3160638492169199 2.5681517528207505 -0.3405401092171892
68 2.9767221282122622 -1.6004792262905168 -0.269889492735468
182 0.8032414584935539 -0.5649082150997304 -0.45528610887611887
205 2.516845925599182 -0.3156064340592919 0.20159606712315933
206 -1.527755762472763 0.37923105759649733 -2.4162897142449538
209 2.8755399864460935 -1.8709030951074395 1.1339429552956457
42 1.4637938546512494 -0.7769137079063653 -0.06926523497504829
46 2.720512270923286 -1.773850787402628 -2.7751030323835004
48 3.8362692051070835 0.32802440939742317 4.299616832717181
66 -3.1395556075800695 -1.217460970145419 1.4422167002071136
67 1.9128323794413817 -1.4570703122133286 -0.9248815146847569
69 0.2024585588843468 -0.04939778258823029 1.3572587818565558
70 3.8668012012283604 0.9607613007281369 -0.6563475612394983
71 -0.15785239238066248 -1.1439844700924435 0.3033981388202985
72 -0.04312075624042733 -0.05324976726203836 -0.47053625781454433
186 -1.753371553567504 -0.6201006849544312 -0.9058150141584771
190 1.4777920487589453 2.5690511908362015 -1.4334584822800847
210 1.1138842538216713 -0.5060596641768903 1.5126984023293477
213 -0.7839773242790521 -2.9021707635414056 0.6673040731020349
214 1.1131760478615154 -0.580957389946011 -2.047640539958434
73 -2.1742842235916116 -0.5204192221346527 -1.1758268419915436
74 -0.09326823908069576 1.6224209794243114 -3.5454746324501674
75 -3.401299279483765 -0.4200714449414087 -0.10891679949542607
76 -0.5945328611721749 -3.669569734457648 2.686439107869784
77 -1.9439557982868143 0.18164945121214274 -1.2830423518754952
80 -0.20549922992554612 2.8060823553231673 -3.3226090792960004
97 -3.955277505149936 5.0319243587145 3.8362438980038425
99 -1.9883998334915094 -1.6010593519166962 -0.2365332333877774
101 -0.6018074244543999 1.7263048259794733 3.215599302602063
217 1.7295390009978011 -1.3718402521426358 -0.42664293756722427
218 3.729820869759823 -1.3641036816153238 -0.3177143809088677
221 1.0168804196680374 0.8488111931709832 -0.42845768397233575
241 -2.864489595967048 -6.522347257724334 2.153028883470668
245 4.612478558666018 -0.7712053197924663 0.03158418672826379
78 2.87482462469247 1.082684321400203 0.2594761651311132
79 4.314104235112698 3.449309260396915 0.20990972923934306
81 -3.6882000785398557 -2.1953262786703256 1.4455953956824754
82 -0.1513615408146366 -3.4679836419245404 -2.194253790561077
83 0.6563169491778429 0.7453355990605758 -2.5268493883919763
84 -3.2828488091438643 -4.342016427100035 0.2522827471034124
103 1.1222084200497184 1.066439582747792 -0.42993413684101744
105 -1.8362995128613815 -0.18918775447029648 2.270161909368711
107 1.0415285365833498 1.8152203413698373 -1.8408984730586246
222 1.1936842281790723 1.2004508679587382 1.7441194784881788
225 0.2198174283742372 -3.2975562894878245 -1.4610006223345557
226 -3.5524830719684592 -3.8929591166713657 1.4226739160815345
249 2.8853595719568816 2.0740651438562594 0.601303676848556
85 -2.413622389027849 0.7196204406773947 -0.6797905616354869
86 -0.827957162304126 -1.9391049608956594 0.8944472396707408
87 0.582878580251217 1.1562141311102887 1.0998579927357908
88 -1.4626878402319852 -2.091975970011547 1.8271201146227771
89 1.714352783210196 3.6508250950933037 -0.27868107938293046
92 4.559146189921854 -1.8063730379007241 -4.555335243012994
109 -5.787213195343753 2.318345325872043 1.7961872865161335
111 -1.0949084319685118 -0.025826579178353792 -1.9361531332346154
113 2.1761526929378565 1.6370091519532686 -2.9215612903675323
229 -1.855763214713021 -2.5186708532457334 -1.8664200344270478
230 -0.14085270587084384 -3.510519002542455 -1.6859908055453545
233 1.6685759465153112 -0.31578303835743504 -1.8468589019635688
253 -0.794763305546373 1.898346734853717 0.18678096511263578
257 4.94789226102678 0.962498624296365 -1.113890403040409
90 0.377231567845322 -0.5711174140740098 4.58644656487337
91 2.2140316156732824 2.322429190679457 -0.3657050064674318
93 -2.06355061055494 -0.03671348366773167 -2.295822655751278
94 1.0326575269780232 0.40996259344757646 2.0224714074757615
95 -1.0127934257010225 -1.0201326620479856 -1.9714115884758672
96 1.2041192789723134 2.710511194345812 -2.4299009490969756
115 2.799658713357846 3.4739537951604107 -4.030875305660295
117 0.5387540635921934 -0.6919223336588781 3.44761566092508
119 1.362820917403578 1.2207897834007952 0.3602372439369228
234 -1.1562608285936615 -0.2615929751395096 1.7826258340861472
237 2.240670898729135 3.3105895228227453 0.12122063954842711
238 0.11033860842675842 -0.8542793409452606 3.2083951450504187
261 -2.2745365027896915 -3.3329968550766016 0.6378457517695784
98 -3.5020758694261254 -2.427764986368057 -4.720354100661333
100 -2.245656454943129 -0.8429141054990575 1.8374701764905859
104 0.0982978228043313 -4.962688717482115 4.807394304880128
121 -1.9644021613895388 -3.003715103552882 0.29266235646844896
122 -2.376534126514176 -2.862888204971033 -5.139156835551083
123 -2.6103711957471973 0.13417418608748774 -6.972389186482526
124 -1.0686216229620236 -1.7723872862316346 1.971324147226406
125 2.4507706247321592 3.4210399225650194 -0.8329300137988239
128 -0.5438185990149145 1.5147409599986503 4.06408575082286
242 -0.3564012673970144 -2.333281922033906 -1.8417362249257943
265 -1.7437419682978847 1.7740822155309066 3.7027534463876686
266 0.9164519584290695 -2.702307331320779 -4.033142212978534
269 -1.6178742929706986 -1.5023101389144589 1.401653503106602
102 -2.712740796264123 -2.1427055562270887 0.6506987386365469
106 1.123884450073459 3.990977239043665 -2.765399588145343
108 1.4708553970067695 2.1323693055053177 -2.9181562316938403
126 -0.9555172642212562 -1.6633773782402774 3.711941735266455
127 0.972614985632938 -0.5753613424039973 -1.0111523927394201
129 2.570684533180559 1.3672894969188654 2.3756728525196875
130 2.32683928961799 -0.4457169527615015 -1.3183072549804924
131 2.4119209335885055 -0.7768594372778757 -2.742175742232484
132 -1.3519054112021869 -0.8549424384642904 0.8953865676050357
246 3.7728844911552533 -2.43636457701644 0.607242549039134
250 -3.1521503399557136 -0.4036872195041611 0.620542052379663
270 -0.6588969389028411 1.4005466444043075 -1.0116087584898403
273 0.5922795803104909 1.390778230627863 3.121232548637659
274 0.5385629475720838 -0.6177020168465382 1.2238046590686895
110 -1.2081961574165352 1.377267862945963 -2.2062610789850092
112 -2.518210321713815 2.410756831562266 2.4402753072753582
116 -0.9222221414288505 0.21362402771874398 0.7248104305179105
133 -0.7019692227521491 3.018656740261013 -0.43951087072645406
134 -1.8327886630742354 -0.5959971794622491 -3.614971772182325
135 -0.9218349616240774 4.080054056724122 -2.5309708027782496
136 0.9748026663455905 -0.3282050352338288 -3.157920386995806
137 -2.0202592661180208 2.0166023917229072 0.850117574544893
140 -2.1152779795562613 -1.9288511881925925 -0.678869397751066
254 -0.5675943602296634 -2.6059655280181238 -1.819017242426616
277 -3.926694257326145 -3.5693175990574373 0.13235749993310972
278 -1.1562720163307951 1.290089282715125 -1.0387124279551156
281 3.9369958778644776 4.2820156337972906 0.9722254521174546
114 -1.0405106836248588 0.24376570440117373 -0.08212657057446099
118 -1.3206745145640382 -1.5463068084667757 -1.1280489279360104
120 -1.72956188186379 3.3350664066080977 3.6500104023144337
138 -3.3100409697984445 -0.2755975083192471 3.8238096387418667
139 -0.3610473755140422 -0.07715426742838892 -0.2013362523735148
141 -0.9126092287265171 0.17779605278701008 0.8367233571555006
142 5.582918339021471 1.7081239197508358 0.01752658039068048
143 -0.847637434209068 0.11120132452418449 2.6116605955838192
144 -1.2050941269570907 3.342179516960377 1.6426990790762948
258 0.20952793497559835 -0.29140781182251074 -2.4577581042845917
262 -1.7443421432994102 3.302376740592984 0.16973866568527934
282 -2.572239861438324 -1.3599587389076622 -1.6823201727653188
285 2.8464972643864357 -1.9357653081379793 -1.5469637202689668
286 -0.0471316178276003 2.7905617974152035 0.5886295894278419
147 4.7218689589568426 -2.948406540488148 -0.9672979483174724
148 1.6793711713828083 -0.6126947633901185 -2.487617951896526
152 4.149403044649021 -0.36674934717827384 -1.3688514554560003
171 -1.2453254571162655 -3.2880892915674296 0.8501325277597338
289 1.5136684367803663 -1.1017227114279347 3.354334497622694
290 -5.985098161337447 3.591020813051434 -1.6341349321887255
291 -1.2309454787862337 -0.40778964845328125 0.052938029302673266
292 2.1337056192271153 -0.7711311424426038 2.491940177563295
293 -1.345343969487999 -2.6590106348248796 0.914114915220468
296 -1.9428872723319608 5.777027535786564 1.715706186256241
313 -1.486918361752055 -1.9941442356554726 2.718618601400268
315 -0.9794940190712624 -0.5556468239473915 -0.545318837373249
317 -2.2200081197085098 0.28635222623805223 -0.12479598601610843
151 0.0006605706679612099 -2.630575256556342 0.9795080069864202
155 0.24172545362506487 0.039920196716410214 3.1179644779141356
156 0.16698090366461762 -2.5354702421088526 -2.6004207751904675
175 0.49529833965013204 -1.826021476447884 1.7276130017875904
179 -0.6847713634753023 1.1635713577741307 -2.530943114357166
294 0.8295760875000703 -4.039558895178013 -0.9662411749713873
295 -2.473062077431152 -0.906665061266079 1.0318946160758162
297 1.309688376809305 -2.4389772163251284 4.732459051137019
298 -0.9700525663665653 0.6957184671491321 2.3133066315542474
299 -0.7089883125802066 1.8214626392900335 0.5915781670886646
300 -5.012080899993866 -1.5892031424113073 0.1447778875936322
319 0.4865984196409524 0.5396706925706597 -0.24931183207156443
321 0.0453772844918032 -0.34617425713306205 0.002211373709342719
323 -0.415303538394292 4.7605646413786395 1.517485073687431
159 1.4335973645606446 2.8161892029378457 -0.5721573147805258
160 0.8635137094429612 4.686310698762478 -0.9119647020869585
164 4.2785947122104355 2.7689945319678957 2.565581312553384
183 2.344632972041828 -1.5545493381001478 -0.17199243780515966
301 0.9697609742304554 -0.7025430326823583 -1.8548919477077355
302 -0.5974421712028617 3.8135179926940146 -1.5167535183726963
303 1.086270621177472 -0.5387049410738051 -0.9927436994141455
304 -0.7642103984227621 -0.7581247990707053 0.9176002583618948
305 -1.5006508079536218 1.640049596712649 1.546854218886761
308 1.6129264443365694 -3.517038681449657 1.4667012742294672
325 -1.459478784539211 0.1247385274881153 0.5246607467583231
327 -1.0331497277184758 -2.7304181963571565 -1.0571962339255754
329 1.9164598698477064 -1.4776715641184197 -2.296210359562157
163 -2.65509933797936 -0.4868654506818212 0.7465891000705552
167 -4.269015931814038 -2.2797925888436565 1.5005282566811038
168 1.823885121757199 -1.0966472169996642 2.5693617801030713
187 2.75247301835716 3.091259344304858 0.5837571875371241
191 1.1454531025780912 -0.07290002262170073 -1.555009876862184
306 -0.6725054791096792 3.742334290102395 2.398850210830809
307 -1.771785105945799 1.2998328515106272 3.751584694338547
309 0.7688455886682256 3.1363035360342315 -2.178726986301243
310 1.5866549534054322 3.7294904204762833 3.3473252807041973
311 2.6515936094785837 -1.281230591794676 -5.113153775640549
312 -0.07265246021649649 -2.470140291271665 1.6703729370134803
331 3.7575728547980396 1.5174198469991758 0.7057419001056868
333 -1.9486863106979153 0.6747803401357932 0.6727782878455469
335 -1.4270240375797154 1.2356464050254328 -1.6266119622350803
172 -0.6687372130122233 1.4570311613763203 1.0756341624194348
176 1.0505875018963964 -4.6420968824021225 1.5257985466819077
195 -1.2621006054545445 4.496354668812693 3.2594239290546287
196 0.9195693014682369 0.45366988846213707 1.0271383193130703
200 2.266485726860098 -0.5872769116121979 0.02422457923525549
314 1.5794108718585766 -0.3806789581754796 0.3093632348200792
316 4.68116580173461 2.1604506058989474 -1.4167153567949569
320 -0.9761729536236887 -0.25441529341783964 -0.3965684937869036
337 0.7636751000269659 -5.698847271600218 -2.557057025827343
338 1.995275517748568 -0.871324332005992 -0.3198298499592581
339 0.1849396390978892 1.3017801479502846 2.361597678258259
340 -1.8378871992005703 2.460339286807408 3.5107722813580127
341 3.987582218109386 -2.099390532991479 -0.3130222217751649
344 -2.6235520354213535 -1.4766518923520877 2.8954977310547454
180 2.6551249381478494 -2.211448199671661 -0.021852915835106894
199 1.4524420210492415 2.980979042426802 0.9343615042902621
203 3.7291164466787508 -0.4260329255796468 -0.4011297094194219
204 -1.613971980444827 -0.8045185520053828 0.521901874999732
318 0.4149325312415395 -0.7690785004688662 0.9086973834486848
322 -1.1158211152573807 2.1612662352907726 -6.00823945760156
324 -2.652723381265667 -3.438901024845987 0.48094042800343473
342 -1.6173660204707099 -2.8905453363791604 2.6280522228207
343 -1.8252727605819448 2.663704308572845 0.9898623918534051
345 3.3222217672363192 -0.45534052988401036 1.0197036007431675
346 3.9598910535853618 1.3665603476932107 -0.9992589769864968
347 -1.3852580107864574 -2.7136435246530715 1.9591931228491632
348 -4.144620973139406 -1.8057843842623682 -1.287328103921187
184 0.1120101758762764 3.2371579257998553 2.398595557419141
188 2.1432949247346813 -0.1252853189239403 -1.2583335109647977
207 -2.3298513423326646 1.9541522107781517 -0.17201895360161962
208 -2.070974790458125 4.447298066044541 -1.7912482799424665
212 1.6769582979270705 -1.3462486010435084 -1.5881765600152495
326 -2.203519903584168 -4.858733095104853 -1.2309074757417482
328 -1.0228884407899612 -1.738976202565829 2.9960477264496337
332 5.278752179808393 -1.6994321476125218 -2.002710298372253
349 -0.7768286887366211 -0.3794888839035135 1.7518185385720029
350 2.9280148470213465 4.977541029852238 6.071910784833986
351 -0.10152124094379601 2.6192934920375714 -1.8424416898783642
352 1.0758186594918524 0.0727487734657574 3.1899929630788635
353 -3.8622576590644813 1.6611161092200977 3.169433444270112
356 -0.2188392820944748 -0.8849996140436118 0.5097778968141964
192 1.504800087234061 0.5619710113394552 1.4626680960930745
211 -1.4368205623293062 2.25583190191418 0.4387565915609166
215 0.32832612387743765 3.427775765185626 4.098023375298457
216 5.888757348051315 0.40044440144800986 2.9174732104216288
330 -2.112961705192589 1.4259528608032168 1.4341443989287652
334 0.47484030043119685 5.131225482736283 -1.6191695231720884
336 -1.8149260356016022 -0.430057259686 2.0883077638013443
354 -0.9779459486610342 -4.387904298188737 -1.2532520306794357
355 -3.24202682192801 2.2643493389578833 1.4765231256768165
357 -0.6011493905227823 -0.5581288868367537 -2.032212510467725
358 0.4121828569323673 -3.819136372232072 0.2694771673884923
359 0.2311855373635689 0.17499441507831254 3.036141338786793
360 -0.9715878852602285 -0.15357468223441667 -0.9258160051626123
219 3.779405166289805 -4.224175445982791 2.42276249264215
220 -0.7615111182740828 0.9456409858493415 2.668463906084689
224 2.113362016890534 0.002385470984465912 -1.6745727267264572
243 0.17576385934697136 -1.2724117982027923 1.1263705101971024
361 1.8746438981835376 1.5717579674112496 -1.2921670378391197
362 -0.49267454389095355 1.0779291168543885 -0.8739939565565634
363 -0.6057388259770388 -1.3476904552940765 1.5763438182935885
364 1.0919451239233835 2.380790727268144 -2.368688781474508
365 -1.242143031666428 -0.26361888513687 -1.0927318525840057
368 -3.901355245825629 -0.6534204921132555 -3.550699400907286
385 -1.5442119746733278 -0.8925474892934399 -0.4716739298139771
387 3.36724674491038 0.16857779834470696 0.5002102043029499
389 -0.7896702541841263 -0.7426393924341954 0.5080365112919304
223 -3.69834729347999 1.435500960178116 0.401236006053834
227 -0.6730361743749514 -0.7846198630609116 -3.38179960965897
228 1.979528406078916 -1.3064899866934412 0.9816384424450139
247 0.7301183123413175 0.08118105582084956 -2.2003631441286235
251 1.6703835024432336 0.6948609324964337 1.0675331733939266
366 -3.628023858958178 3.307971320121605 -0.7381325715230834
367 -1.2601536872517858 -0.8827321508726047 1.802954497855247
369 -2.3263551997717977 2.00707852631205 1.5434596425620177
370 1.9324649585113185 0.31138069773380095 1.2558091625510879
371 -1.4178221959221027 -2.26762362729968 2.078062812664625
372 -2.8493734208045702 -3.0670434923515275 -3.7492661542606833
391 -3.9521882492282696 -1.3333292795784923 -4.377516228609792
393 0.23533783216348497 3.15535252376183 0.9836838591744416
395 1.2446640961085045 -0.43962935636829065 2.472034799398291
231 -1.0024437254360077 3.129685176129381 3.1589308112774996
232 0.07109246579058086 1.0288641975426125 0.35553492391353836
236 -0.6957401242739748 1.226322040021241 0.5739157391850879
255 1.3104938354150721 3.8488011982442742 -0.8112078864415428
373 -0.04589764384375013 2.464045245002552 0.12767889845984826
374 1.4067740173315664 0.209399895829154 -1.3159300870983723
375 -0.05436266743108976 0.5010903028891883 2.9422141671424096
376 2.0154210983255743 2.5717488555733703 -2.598307101269673
377 2.0457624964634187 -1.1448259344711467 -0.7116460707906809
380 -0.5735961648252429 -2.605660165968859 -0.28268778813445467
397 4.068345545424646 -2.742838643960271 -5.136258591136011
399 0.6018420702370099 3.3656100947472862 1.2370885571309418
401 -1.498750473841553 -2.3751174107978996 -2.770834396016976
235 2.130119725968444 1.19003389209108 2.331772462355586
239 3.5477797857327986 -4.264693481906944 5.011495246211495
240 0.6220251316621672 -1.3995224681195726 1.112471088310923
259 -3.8007073542540386 1.482324136775431 -1.2898201429308467
263 -2.3951617439488726 1.2185908763368514 0.12273939420731797
378 -1.34573598765882 2.85935649244085 -3.1577318275932686
379 2.049086823256097 -3.1247225627347595 -5.524771406288526
381 4.589462391598359 1.977536600879649 -1.0317512502302433
382 5.936021808843067 -0.31590036581027625 -1.7865522032396175
383 -1.7007755476227109 -1.894749101569 -5.479852854516264
384 0.579446121260234 1.8922246670182448 3.6059591211479813
403 -0.05450088828770022 0.8305618188271416 2.8717526384224232
405 -1.6118855852903682 0.10992226090396674 -0.7109381356214725
407 3.004448840370595 3.4739161695893133 -4.642825800259803
244 0.4239567854835776 2.130496924764718 -2.695965843925846
248 -1.483021621154186 -0.7183173938485209 -2.0587183887720926
267 -2.5904536054246536 -2.080473839581129 -1.6128789084689705
268 1.3474497207072003 -3.2929797408538852 1.8445288651968248
272 0.8606813752848222 -0.039922657199382816 3.532295344074174
386 -1.952556459796294 0.8323139904537016 0.44846164943388717
388 -1.3261503189145432 -4.723245557125518 -0.1470883325701114
392 0.26140638858745824 -3.0659347712821825 -1.1313804789517896
409 -1.7064104870156926 1.9836609927590783 1.0678975507385515
410 -1.7748483526797705 -3.558485201378907 -1.2852304414025153
411 2.9256575000889025 1.3100067988636075 -2.393201932884218
412 1.2960812886862598 2.1576650970182416 0.3229085174718241
413 -1.8779401711792423 0.722908406651499 2.8365888518637674
416 0.43838801288672413 -0.3001555719344274 -0.4821444725083322
252 -3.279846419867451 2.8035805646775747 1.0546313447486286
271 -1.180238310853253 3.2237223946616402 -0.5209663236910044
275 -2.912561535452614 0.05589449507530869 0.6910399293391535
276 0.6636742201207846 -1.4299930201300348 1.8977105489435084
390 -1.0037758306996183 -1.4408042076752918 0.20036903518817661
394 1.204220657680356 1.488817707147417 -1.4174306442888296
396 1.7916363713614198 -1.2575037235153481 -0.31316742364334943
414 -0.27930786480327857 0.9181978604991422 -0.8014044917347949
415 1.8475136061008839 -0.31684048519192565 0.6954138100049981
417 -3.290933636188544 0.3294645179623754 3.082021680701045
418 0.7483637932645564 -1.2822185711549505 0.012955387994732979
419 2.3623075548019727 0.5492361473629488 1.3734387484643695
420 -1.3923229218431497 4.654735006692977 -0.7528674137410408
256 -1.8340566727740233 -0.3210539045343064 -1.455009680862407
260 -1.9244367916913228 3.327374281600311 1.1976235397386321
279 -0.6607241799466385 2.7006976629157786 -0.029087300032042122
280 1.9082202855801584 0.10464445000645864 4.103310619977569
284 -0.725176266143768 1.1586896850729183 0.6022052902853847
398 -0.6174681944105006 0.8209084215679067 -3.018467330503353
400 2.3255972378707233 3.768907834081757 -5.020427116486918
404 2.761656745977103 -0.5005119565317135 4.960631487130207
421 -2.082358661071729 -0.9926945688811706 0.7885419119900072
422 -4.223923652728476 -2.0007155239921337 0.7388247284846332
423 -0.4207458089836601 0.8813853596513228 -0.6096722393450783
424 -0.2282905568588975 -0.5230702988339647 1.5603783080663198
425 1.366497815940861 -2.535054887890724 -3.065669533236879
428 -1.4251477908807835 -0.2699280772011817 3.603027330096161
264 0.24828676387039503 -2.7763222621558485 -4.3174201276037865
283 -0.23912913125319238 3.049182077806666 -4.327071297205123
287 3.6834870395478316 2.436312156402146 -1.32121326161267
288 2.4364363786075898 -1.5152097294370837 1.880660877194077
402 3.156324157826426 0.985258311128119 -1.1642647111987952
406 -0.11572384282411724 -3.759169045834094 -0.3191893485337222
408 -1.944788389552377 -1.0988472773580678 2.4635950805871825
426 -0.2385252701577334 1.438021131791447 2.5995012450305834
427 3.3435172003807256 4.548990414972386 -1.2740031711671687
429 -1.1822513572191842 2.811698900894443 -1.632260682639537
430 2.856062467902476 5.594291809340072 1.3210640292746305
431 1.1680279894900818 0.23832166292902035 2.2562048637323855
432 -2.1598861314956355 -0.6007748466830303 -3.5027017686223516
433 0.2520379674386133 2.603041598554524 0.7676966047105602
434 -1.1764553942892537 -3.7303842317127303 -0.5670191206860762
435 2.407924960701145 -1.3126033187254977 -2.336439657966187
436 -0.6552726054385519 3.640014393509462 -1.9866643353337838
437 0.3334770043618006 0.23250781867197529 -0.49900923596792107
440 -0.3851419178209126 -0.7124873780816576 -1.4509047496371361
457 2.5211949265949474 -1.7541862754583881 1.6422503615560848
459 -0.0036949660157892146 -1.558087923325221 -1.0212952878996586
461 0.5343024112904481 -1.182157385894572 -0.44824119903511966
577 -2.2525503028597265 -0.8994407241317017 2.852441812020186
578 -1.742693695835515 2.465659138872878 -2.077575638578592
581 1.2649376005490918 -1.5486978132033091 1.617440853895346
601 -0.5332427386482289 2.329251722558133 0.4326474017193187
605 -0.7663166492695136 4.861555326387463 -0.20549223678269363
438 -0.6613634316904401 2.1170442423058806 -2.805115931989773
439 -3.3045853713208295 -1.9346849411239553 -0.6907917574469535
441 -2.626723929131124 -3.1055921500540773 3.041740557719956
442 3.597693976702118 2.3198624777661996 2.08112307768005
443 4.834936045449486 1.653466785463449 -1.3344077565485548
444 -0.0394010814490004 3.6494024186333975 1.553479686965418
463 1.3160836803417375 1.7288596817042345 -0.25443897550912914
465 1.9057202647307259 0.7877274461560437 -1.7192396742695628
467 -0.9981444455612812 -1.3464769078802448 3.531068434034247
582 -0.21543995460545762 -0.47338920146413843 -2.321900580690024
585 0.6227389380611029 4.431799829736286 -0.6378446095679231
586 2.013255211518094 0.8431238701160789 -0.7823158851749714
609 -0.23332056868453932 1.2195597471999042 -3.0750945172341675
445 4.127620424556524 1.750887310985498 4.5026909159493504
446 1.2250614705664873 -1.195421934843708 2.9282588001846195
447 1.9758435849320137 -0.8135333471301895 -1.6875118901543147
448 -1.9934777801787007 0.39209576045189015 4.620144889177701
449 2.8716425196058672 2.172912844628373 -0.5004847185254728
452 -3.730389230465246 -6.163441040701429 0.6932050793003428
469 -0.7687271461512065 1.562745992244398 2.0218027406940067
471 1.948026725777973 1.4296912184827886 -0.04674366594303616
473 -2.5979791466597444 1.6653101346579349 0.16010202672903476
589 -3.3741543351379155 -0.4934508450093309 0.1285273405448774
590 1.2363144309896799 -4.575077773363289 -0.28627339931558365
593 0.0830058641534325 -0.4552960104851773 0.3310948677730782
613 1.0768377715543542 -1.6027568707483526 -0.8677748357232788
617 0.7499882910768503 -0.18944536856406366 -1.440129346258237
450 -1.8185249797769758 -1.2696650440478794 -1.0390345308236082
451 -1.1118559675779012 -0.9674773589375385 4.6035118024447925
453 -1.2274199189796564 -1.1067836130821491 0.817044068442739
454 1.6595036940350927 -2.632829797528964 1.8637436061869475
455 2.31120383325998 3.893434694693389 0.7496966906830793
456 -1.6747162358092942 -1.3754865021403702 -2.3951639885586253
475 -0.5474695207081631 0.2109320407617991 0.5384437294565372
477 -0.9219929641950713 3.156739093256306 -1.7060251769457466
479 -0.01648753508884463 1.2989698323277832 0.8035820288781361
594 -3.84591518355277 0.2598624942057036 3.44368806169832
597 0.6541861951508927 1.3320710908705589 -0.2908200186264283
598 1.7083001213905828 1.8366101752344166 0.1960429154297921
621 -2.54740487450878 -2.847479498504838 1.3442773545068407
458 2.5545042410363714 -2.4368219201911643 0.5644698314085573
460 -1.9041555835820625 0.08587002585115497 -5.41540250542723
464 1.5796104436922263 -0.5407752802058351 0.6672788473931042
481 4.577814690373204 1.1997999229108867 -1.7015124175954894
482 0.0669408774040256 0.5941405631294034 2.2548730525556557
483 0.6828027389088551 -0.8579411295997426 -1.2978789511938122
484 2.631384495670862 -2.514264364809065 1.714402592360998
485 2.180780536566454 -0.12142315221531386 -1.993876513768164
488 3.5111311953293804 3.9827201502978036 -0.4089224148390512
602 -5.253534448828764 -3.116334170955871 2.622569046829983
625 -1.9032418942768428 -0.738530576651871 -4.8063149450356955
626 0.9429808687759857 -3.8206141584364857 -2.0716050059082765
629 0.5329544223183614 -0.4205850159826081 0.08493397883030339
462 0.4520871408553677 0.5822197670086595 1.029877966965495
466 1.5158580588920039 4.268445736428144 -1.9395896493573133
468 -2.0779783757621453 3.2423589087503233 1.3104670978056159
486 0.3999364869541485 0.5874070540104108 -1.0532379766073854
487 2.6322134613406627 0.8305810955178413 -0.16791567637730193
489 -2.6302339454967827 -4.914740539600171 1.003100777628398
490 -1.190666563214482 -3.6183234547693894 -5.155205171046394
491 -2.1364186202550877 -0.9101609529016165 2.357052842742666
492 -2.4627223439218824 -1.098590601872868 -1.5610455669604195
606 3.121982328594523 -1.9223989648519804 5.128820329435485
610 1.7516445993600203 0.942214081221213 1.4458873230471108
630 -2.7157364000339297 -3.5955595532449247 -2.8898046088697553
633 -2.737580278219195 0.06278108794121182 -1.122390103933534
634 -1.654640217408604 -4.7010038423752 -0.5448185579131779
470 -0.9929532500695595 4.9467210924327985 7.561192585327889
472 -0.8424758778992133 0.5474451284269316 -2.2272604517274126
476 -0.8556010849079667 -0.733026398648277 -3.478488526756752
493 -1.0072535557752866 0.2525229789685201 0.8591579298785382
494 -1.8183021082870228 3.855912024037021 -0.18811172280635494
495 -1.7363291045152105 1.576171606027953 -0.9863865836685397
496 -1.2937004620794366 -4.3178379360955566 -1.3746874172729977
497 0.9196641744105465 -0.7331466009115911 -0.8615141637266549
500 -0.10325662433045811 2.0922655556496688 -2.1074069396994286
614 -2.2846321978919297 2.5208861372637386 3.4733957564161915
637 0.6989822915867787 0.9863443808094725 2.1960804307756128
638 -1.6054844031350777 1.5869318511244788 1.261210891671927
641 2.013008577396936 0.7762110817053258 -0.4662398341367944
474 -2.113912647085011 0.8044402540173702 -2.9007239613825218
478 0.13276768518008003 -2.741371900188154 1.8602620223453659
480 -0.6306383475929107 -0.9984193498032425 -0.0129640884378385
498 -1.7834290995556696 1.148951906815935 -1.1179048313557933
499 -1.3547792670577807 -1.8759455596816117 0.571622216550119
501 0.5965579517542619 -0.8403091977621879 -1.3477966676245077
502 -0.4786778204066416 -1.9338027175507155 3.2452456270136283
503 -3.131819953963534 -3.1131697989484577 2.8846644713602623
504 0.7396612439870341 -0.24315176116424686 -1.4432320440802537
618 -2.1066068422682966 -1.2458924081627205 0.7776640139580303
622 0.6178540742950057 -0.7161835888888215 -0.22964946531545116
642 0.8478968092931983 4.747728551908905 4.681387070751534
645 -2.7279134178284914 -1.3520966849306593 -3.1361659214227746
646 -2.373308978397374 -0.687814361568545 -1.271377351760161
505 -0.44746462891292343 -0.512294460989404 -0.2611246420685369
506 3.3237576998378042 -2.217678773750968 -1.4712845257342992
507 0.13890717729123184 -1.6961973710287523 1.5607670575284944
508 3.0513925387599907 0.6136425457830643 3.055946227718763
509 -1.1872646471530026 0.3415919744536093 3.3410051977035833
512 1.3356466473391946 -0.2556584938539427 2.9159003740384555
529 -2.4663819932964013 2.3003628363240645 1.570341327836368
531 2.3513701559021323 1.1303002703378158 1.7225491415204455
533 2.12924756164053 -1.6674259150856658 -1.2668769121703078
649 -0.5527487338032192 1.8401568353338507 0.4912658135648414
650 -3.4063022423474334 -1.1544447760230312 1.8798739132528715
653 -1.5779398481749192 -2.0317042554891676 2.5794021897870056
673 -0.33932397876211284 0.10235603035781721 -0.25031034932538554
677 -0.6933893832521109 2.0904597491556274 1.6150594370971365
510 1.0329340772156936 0.353450690696243 1.349432801362383
511 1.9751054546104831 -2.129833613286729 -6.0010602072507355
513 -4.440076348029055 2.587401354775706 -1.2630689803484423
514 1.2245397471534436 -3.1044971691960352 -0.7312078404332314
515 1.0526500117585202 0.21753418910029065 -0.4097881547291137
516 -0.5057572116560918 2.364749251671959 -2.1454288830695374
535 0.8050856767594893 -0.6328718229227069 -0.6457117805983267
537 0.303224456201015 -2.8546671196298337 -0.6602128148274358
539 -1.8728129830833546 -1.2098577369986259 -0.11902622020615124
654 1.3696882344744077 0.4236589010527856 -2.2229144250986956
657 -1.510166863199539 1.5563381944831916 2.1619070719431552
658 0.06654423944649959 0.3385382418266324 1.0296953477221962
681 -1.0107127332532235 -1.0957898498930236 -0.2798481160245515
517 1.679746132011717 -0.30912355700945005 3.6462512964262785
518 0.9282509079697937 -0.2683004479254943 0.7159803444874251
519 -0.6438871027323576 1.0657356545340748 -1.4168954630605868
520 1.2358854212266146 4.119825593377224 -1.543551116642487
521 3.6949573107620677 0.513135115590303 -0.04028326462769881
524 5.854199815968995 1.544697415606973 3.235612368050983
541 -2.79994513661642 -3.7123199919190673 -0.7597883355113206
543 -4.082698963492514 -4.954247456286533 0.39943039784025397
545 1.9272440379176434 0.8588758174497697 3.4400764561509147
661 -1.5687027475714732 -1.4666333946348247 0.7358017917618604
662 -0.2717445463132082 0.1452457694526694 -2.2122870592995705
665 -1.5569461614923537 0.7660234953124849 1.7294966634940583
685 -0.8754364839381961 0.9495820114424314 -4.988035537938493
689 0.8642464566524733 -3.365712834417317 -1.0977738829835486
522 -1.0250723772004542 0.8147355056952329 -1.5292334945467159
523 -1.7899673752958996 2.9707328925295853 -0.9376548767919096
525 -0.1998267128932234 -1.0457199001832818 1.5509611835446957
526 3.406565979193249 -2.0450628510740163 3.034053450036547
527 -1.3485156502306532 4.89871189425857 -0.5160162767390962
528 3.0191281875462264 4.408763049630839 -2.7214151244377587
547 0.6087757904084814 -1.8389030946263318 -1.3343583950088596
549 -0.15248535210051206 1.8867511242571497 -1.882707006894525
551 1.5313855415029232 2.5083461190315135 -1.7569712385094327
666 -1.6357402222538462 -3.9079354512661926 0.004338296891471496
669 -1.8214513002866561 0.9753486851097495 -0.9464297503040293
670 1.990532095903845 -0.44246159818811326 -1.6648584660479848
693 2.5747100815282926 -0.13793938085441307 0.8066040149987292
530 0.5159508518781893 -2.2432783455147622 2.503749747450894
532 3.6307988093152543 1.5608584436917232 0.7541333318325171
536 1.9062160014714051 1.5834052960851397 -1.0520985966314744
553 -3.4569973628983095 1.762011502199754 3.6733150772450016
554 -2.8470625784281536 -3.274939118740043 -1.1348094002748252
555 1.325073816232445 1.2432226185500879 -3.848586601200213
556 2.2277855917059686 -1.2510790243612837 1.2273097940767381
557 2.9065803648667448 -1.4444514219314257 0.2861942010542397
560 -0.7851216781063215 1.0776049927371256 0.1084140808975102
674 -4.918310505621119 0.11121855487604987 0.09020476568174676
697 1.6357697961807802 -0.5504755115196294 -0.36671273400977367
698 1.2532646977470283 0.08760624644349942 0.3583555213940398
701 1.730949805037575 2.093179590322251 -0.21028284553667992
534 -1.7133588029535365 1.622608560961135 1.3464894651654242
538 -1.4531247282242705 -0.7428565167243173 -0.22301992408272794
540 -0.9309481883028922 -2.1912142930077194 -2.123960272644353
558 -0.7399947265349001 -2.585745166992426 -0.002552360473887058
559 -3.834815811026316 -0.28858709392261783 -2.623662952245144
561 0.44042958057346243 -1.9725872075001605 1.7505461936656095
562 0.8942885176175505 2.336289037779015 1.3671220578874383
563 2.6194493250618414 -0.8182372179480024 -1.2172733074636397
564 -0.2735744203708913 -1.3645444697634197 1.8793762410869983
678 -3.9155174542135787 0.29219241074069663 1.2894364145045158
682 0.5265483159561963 -0.7644406287736142 -0.7747786944099331
702 -2.113619906632925 -1.5043015119707568 -1.405530811019165
705 -0.6056002812698629 -3.463167198563941 -2.260573671046379
706 4.80522307760517 1.5901372470640465 -4.528269624327184
542 -1.6238363201190853 -0.21521122236716647 0.34524017081085445
544 0.6254722030134978 -1.5375603638751687 1.3984375382054848
548 1.0374335902980005 -0.3693388306472094 -0.7804724888333758
565 0.18143529110613005 -3.703365401537846 -1.3044591777489436
566 -0.1383524092523778 1.2607013561116593 -2.676835971003945
567 1.2844033371996613 -1.0241486467667253 1.0234685634691159
568 3.195315797047274 3.0600051665070955 -0.20019646476557218
569 1.262180829001437 3.9764262293308934 0.9473119571514095
572 -0.21622496616158918 -0.8648810677569579 -2.4069150477139534
686 0.03796284731654994 -1.7824864632877113 -1.3705766205475125
709 -0.04028567739527962 0.023259455189321532 1.5585348586273424
710 -1.148909099146636 -2.8917783014848064 1.134778165826635
713 1.1402403171016073 -1.6481356239935674 -1.362073835984053
546 -1.863960942746709 0.41341664086450924 -0.24677080371790455
550 -2.2322381664199655 1.0901840856821066 0.9058939422245638
552 -2.3066512969569644 2.4725033507163863 -4.716706201387888
570 -2.1131949375543293 2.1064791521127426 0.8221326767281646
571 1.6249599041416345 0.17357148855924728 -3.6730118157955327
573 -1.5311545306104863 4.70768505994812 -2.2752655037461325
574 -1.88989858369654 -1.0045370561485205 2.7688018402990804
575 -1.9132174325392197 -0.9566032924379886 0.8581024188749952
576 3.6527337179126858 -1.093763595774893 -0.695088686219531
690 1.0716915526830513 0.018591558158772954 -3.1351987340443372
694 1.92997913354278 -5.510897667911447 -0.44097810183848735
714 -1.0535399626009172 -1.210660472598027 -1.3057522824662515
717 -0.18362653955835975 -1.653218273239104 0.9049773350894377
718 -1.2081201671417074 -2.4013953514996498 -1.9899127704991653
579 -1.3550584973728812 0.23718992363971642 -2.6108486659835073
580 0.060821308817882405 0.34866204195271283 -0.5648445757054092
584 -0.8215041384073428 1.7129842932549926 -2.0357117538975547
603 3.198083276677343 -2.239293823449477 -0.5297065914085352
721 -3.0648591789614703 -0.9084594407953303 -0.6950478914377434
722 -1.4824544821327557 0.3563425614378179 -2.378447176384602
723 1.4474543284400379 2.059093155052884 0.2777900855463629
724 -0.5933268473347404 -2.3963814538733152 -2.090739601029177
725 1.3785636174658533 -3.8710644514224737 0.5477015239614758
728 0.5295012746395696 0.12100166543947284 -7.009122853586219
745 -2.362090134788009 -2.2674457028794315 0.47549183321367405
747 4.212323863826701 1.3666647524838937 0.5410299165375728
749 1.8517743275888612 -0.6110750025058567 1.065003287109197
583 1.1202165031562064 -4.179065658488481 -1.9469432495600185
587 0.3053529072458737 2.6814166161363877 -5.275059260891489
588 0.562944153419178 -2.153757651337539 0.886976315724284
607 1.9668571249024667 -0.7788852391564557 -1.4494388598088608
611 -0.17714853037609743 -4.463376850585213 -1.8099829359342123
726 -0.2884046143735693 -2.220235857699714 -1.7566320198842031
727 -2.2442141372475057 0.6382111383084245 2.8103089510539965
729 0.9814436220087647 2.314310996494023 -0.988631651695908
730 0.2858429635838346 -0.9501574673783824 -0.8847951349494239
731 0.2686946965298116 -0.554809354456141 -2.0222944035639765
732 -0.38733877834586217 1.958173824274068 0.49997574507877274
751 -0.3025965292389273 -0.04267057233885396 1.1098532127918004
753 1.375876659834997 1.3980270705688005 0.12021795479738481
755 -2.6459955125825907 0.7276512755478278 1.1425103594220545
591 -2.4425131762151593 0.11814821267997931 -1.1550902263310865
592 0.00575197027978365 -0.22218299997771085 1.5755684925584086
596 -1.1450096444486693 -0.4265518605067625 0.6049092428950034
615 2.774236616352729 -1.368684900522451 -0.4509223213367335
733 -2.1639193987981473 1.4993758254008192 -1.9433031733228148
734 -0.9491919055576614 -1.3903473987311348 3.328630793073631
735 2.5971825499105563 0.6770953451066163 -0.8706953279781627
736 -3.428038158323051 -1.9358973213498478 -0.3690024042269076
737 -1.2785086765156213 -3.8576004763698273 1.9211606621846251
740 -4.340491959414373 -1.483541638137773 3.211302545540527
757 -3.0787964672775674 -1.1874727126787812 -3.1152954304263107
759 -2.1967568003118263 -1.8998366739014667 -0.3446830756334117
761 -1.6849011197299277 -3.4520378928865165 0.8508151705855347
595 -1.2572569325865026 -1.371990727518477 -1.6175121454960368
599 1.775062837114534 3.904281998119251 -0.8108657505127431
600 -1.7370781188789794 0.866509315010811 1.0857992728640609
619 -1.4641644626204284 1.006469747258998 -5.253329959901172
623 -0.8584243498806817 0.0028465832282234538 -1.9426230461144702
738 -2.445186851211504 -2.8962346596425226 -2.1146469753725716
739 2.9398859197678897 0.29470730401701567 0.48761677338831644
741 0.9311093666501803 2.0408098834504265 2.14943473144405
742 2.618142141429188 2.992640033254548 0.0351192364290826
743 1.7251151000793614 -3.0369125783720095 -0.8558489995074412
744 -1.4645255519684415 1.7971264570604495 0.9352747046243544
763 -0.35489359754886823 -2.1279331282560174 2.1670592536034796
765 -0.13169343047657336 1.0500296404735228 -0.38728416912893293
767 -2.911447300855439 -2.017228539267008 -2.692669413795956
604 0.6673253136173846 -3.439071586384181 1.418352806944566
608 0.4870057476369525 3.7661015471293866 2.8336411491627107
627 1.0067387411457096 5.991044480276218 -0.6257627920516202
628 1.4020782326447025 -2.5136316897656164 2.43957593818541
632 -0.28215645368596753 1.027494943963367 -3.8431641081142582
746 1.477286530500653 2.437284287795485 3.8416115534908766
748 3.698239243574497 3.02694365809621 2.132207243371461
752 -3.865342311418833 -0.7736044636591903 -3.122600972230355
769 -2.7855374145690246 -0.6964634076937538 0.7915334443946226
770 0.9533039587259187 0.40400634623848697 1.7016341097352263
771 -3.5337278635100398 -0.9588738070894064 1.642765812338633
772 1.357454847627725 -1.6567572546059255 1.8911722725361018
773 0.9087309814030353 0.43756346951625913 -0.6529723282989879
776 2.517630579954088 0.7619253466534708 -0.5931720020361377
612 -4.387352030818265 -2.2603386305292004 -0.30250846044612123
631 -0.8334772637694431 -1.8864681993038874 4.98515610706856
635 -2.1600832152600207 -1.4842884238608038 3.3302362018392495
636 -5.540288879173301 1.8997275349043625 3.1010729140467492
750 5.2633642430348635 -1.062645181305063 0.5651444051953345
754 2.797573522588324 -1.2007270729048194 -1.9242792543762033
756 1.443510716948295 -2.480754493033532 0.8033062483755141
774 4.970239922160012 -5.454711351151706 2.9465488493748446
775 1.692855699343973 2.307015244787874 -1.3097275973883902
777 -3.4845810318597388 1.3812317226044517 3.4005635613400975
778 1.2515209623696792 0.7952861117539144 2.265963028318172
779 -2.1917967122126827 -1.1387417220160134 -0.1364756721130455
780 -1.0398918138548259 2.2329266177066662 4.323543864577649
616 -3.8220416991989272 -0.4404174394326618 -3.0125009704762538
620 -0.5113174925425197 -2.0472809302091606 2.3189082347039314
639 -0.9132021410549187 1.723700846608707 1.4510049318613807
640 -1.735830657006536 -2.643140816180198 -0.5012529297823245
644 -0.6132457631985391 -1.0541598610899556 -1.8365493762535114
758 0.5994686502643227 -1.8035178524594235 -0.12364078949560141
760 1.8144155516139975 -1.494345558701131 -1.2059697682834414
764 -1.3221122819346909 -3.379548360796489 -0.7689022308952265
781 0.6903858931797473 -0.651465156456103 0.8151722255109471
782 1.5978068373509113 1.147875394910233 -0.5719205014009541
783 1.0587814174336359 -1.313047057323881 0.7050306377114932
784 2.7148996835987815 2.537202121933819 1.6882480532686792
785 -1.9435986343870002 1.7646026718844765 0.50538115007766
788 -1.7810075010447828 -0.27522932318186705 -2.6507541361845894
624 -3.164274886977112 -2.3793525761415752 -2.334829004716818
643 -0.5517868333643906 -3.250160596073466 -0.9834638653206433
647 0.08171850603104246 0.2997241793060055 0.4880899878075358
648 -1.4961834392913085 0.45600522334056964 -1.0734396207716144
762 2.509831026141823 -1.1312067324728008 -2.151746257154916
766 -0.014714164674906069 -1.2409387799731042 -1.5839508720188267
768 5.606718893609766 2.3936450770703463 1.9925573161973513
786 -1.4245115418884264 3.764723136208973 -3.4830192660081147
787 -0.5087158812041127 -2.0660322278278356 1.656840856476019
789 1.7007473386043916 -2.7221441834272078 -3.235394595062172
790 0.8399980035784699 -1.9339135576785074 -0.40428864737833825
791 1.5787156506254596 -0.7617561364494955 2.2401649845409293
792 0.8644420995689801 2.9666222681590684 -1.1524778644672435
651 1.1964343417897132 1.7572764583833176 -0.9135419280504935
652 2.804601507242481 7.086641407112144 3.8714746151349364
656 -1.068932625416537 7.343022896938512 -0.4444354420972707
675 0.7235616473030599 -1.50894629634285 -0.4353568872367335
793 -0.15159898298886326 -1.2140664238346417 -1.1034123356117445
794 -2.9712564512035518 2.5670324031575844 -1.1095034311595735
795 -0.6793946890719402 1.30583502392074 1.4894833719014755
796 -3.9842391654118323 0.6693444492667711 -1.2335311655856074
797 1.758492731943113 2.7723285674129508 1.5809170451620231
800 -2.164357675637386 0.6731372190869799 4.895060279856994
817 2.7666967730584258 -0.561855331929682 -3.555908259612326
819 2.8139276373163877 -0.7126605856342286 0.03624390222044445
821 4.834512039726922 -2.32834323264453 2.8030889552596965
655 -0.2202068737515246 3.678779826394949 -3.4265802637598846
659 2.131901497008706 0.271131825022636 1.3690769660692312
660 1.1038431684967482 1.885578408154848 -1.8955682431482992
679 -1.7951074951869723 -5.477904857056201 1.292741020848073
683 -2.9018105532173766 0.304354214418874 1.3170466021050338
798 1.6943039295637148 1.077050567803471 -2.1508094180907738
799 3.2825652755452874 -0.09003468299679582 0.5703938906788892
801 -2.2783533942489047 4.23418983497966 4.776455083889277
802 -3.6191095209969393 -0.9951938080828772 -1.9892681213713228
803 1.5620889361080301 1.3075934776559288 -4.987323009031918
804 -1.7761826342500935 2.950518539813964 -1.264721071485153
823 -1.7289222846615493 -0.6136203826202171 4.429416488537322
825 1.9811215791738392 -0.14999209183653028 -0.8170052906393428
827 1.6174914929464044 -2.302685294260423 -2.4634841541487082
663 -1.0802174578675616 -2.1126380628604986 -0.45764507859164766
664 -2.6881721464341934 -0.3061772147608256 1.2953104656403918
668 -0.9471453851173387 -1.870748371027939 4.350078076791921
687 -1.171527218791232 -1.4473646086397678 0.5786193471681754
805 1.905817291673514 -1.438670309251758 -1.0006937696032006
806 0.38061843717704497 -0.22264683091209816 4.2704995099787055
807 -0.07249330838025035 0.7160921834426386 2.577057970333764
808 -0.8964586532110023 0.42011517932819065 -0.39313886833040723
809 1.9422883264756303 2.9515184206630583 -0.09396139332603981
812 0.4776419637169258 0.8601068614328286 -1.282661848491122
829 -0.03215713579550658 -2.099547206308943 -4.031922982176029
831 2.3700125365700666 2.2109558255131527 -2.0121080221022623
833 0.27705120689955626 2.572842759034809 0.42613779183504646
667 -2.7679830034029527 2.108001289657327 3.7088831596305103
671 1.150490423293082 0.4054004414867991 -1.385622973214776
672 1.1232313518736659 -2.0385458825232754 3.114133824171021
691 5.404672265859508 -0.22634580252156486 -0.34050121827119173
695 0.2460264262105292 2.1830807540542554 -1.6403273991739327
810 1.64430758569626 2.8564651446788454 0.03175556523917265
811 4.004475186697995 -0.10150292805661382 1.2625094541936586
813 -4.462784966710553 -1.4041450172150334 1.0167852273010554
814 -0.1485851904449432 -2.177290060713342 0.3030444092207577
815 2.5701645776100603 2.3550368234677204 -0.7871607007005014
816 2.384530107523407 -1.6757246526609 -1.4745532846035132
835 1.5503990038726836 0.3783931474118788 -0.521751414256101
837 -3.1592960232065668 1.439876730308686 -1.8929377984576337
839 -3.865049774121929 0.19554560218402034 2.8636177299609766
676 2.5300761942496672 -0.7366661546710999 -0.1131300756306659
680 2.737844718371072 -0.7593992958829997 -0.6478309680489381
699 -1.052152066820505 2.3066084269903793 3.703348891150527
700 -2.8787810459322776 0.46855757061734965 2.4597391372234254
704 2.092279958056503 -4.1357370057936125 -1.3178341800363604
818 -0.3815051719542447 -0.17083652085966305 2.5359172496092146
820 -0.16018258488495127 -0.4534550982743655 1.3675918273758816
824 2.27915691120045 -2.57129838350039 4.851199208625571
841 -1.297391864316868 0.2647243370332165 0.1547779749025333
842 -0.08360613814388879 -2.168583757115969 0.007814299642981505
843 5.302850765650388 4.210746532659391 0.7490829568364303
844 -0.8189497022982463 1.6581697910769417 -2.57358688023808
845 0.8235447293202801 -2.4900500898518456 1.2512745313831117
848 -0.02209811085654908 0.1485759381007248 -4.472511334582615
684 -1.9330214470514013 -0.37516218713499966 1.0034344925877983
703 1.2841547489825158 3.3564354159388614 -2.5355045232677327
707 4.863502912368321 0.47198053175568827 -2.2685930793965547
708 0.42785366811750786 -1.1692821270721685 1.6379014314753062
822 3.087152834518059 -4.451281377161356 -1.3280301673943464
826 1.4461307378286394 -3.889088703410799 0.22652989234531426
828 -1.9177796897861157 1.524028648449533 -2.061810060119205
846 -2.953509190464642 3.0277544016791627 0.1606543121816641
847 -1.5071607827344133 2.4850078522100802 -1.540917498980356
849 -3.0430789129616698 -2.5059485419547016 -4.316711094792499
850 1.293318670679668 -4.899486202799634 1.746007038775022
851 0.26321480475611353 1.584658056991676 1.82378259652858
852 -0.7007695260553567 -0.7379348793361069 2.2573530903533903
688 0.06898342905390309 -0.9270288791512703 1.1009869711508076
692 0.5279747725738158 -0.2231555329610947 0.28214632576884213
711 1.4500322339971836 1.3984205995801586 -2.275336914631604
712 -1.3465057401171114 2.0832630312094933 -3.0799494896139383
716 -3.3182892768542414 0.4817286487115279 1.8584898350522423
830 0.18334366600330032 0.9755687035369286 -2.6838589402203015
832 3.7864221672390204 1.2522555595261566 -0.6259684896549326
836 1.5721915809043223 -1.6334360133969326 -0.795492909793131
853 -3.136476787562029 -0.4872132503221373 -1.1631578646804444
854 0.6148689292559779 0.39552584389303563 0.16118472739256906
855 3.7237854300550564 1.6461378851421733 0.31965562784001894
856 1.341611667617915 -2.6688717005506932 2.621725445860262
857 -2.42596323590986 3.303414757264614 -0.6537923350777188
860 -0.6205827579173233 -0.9411233798891924 -0.30392932921500937
696 0.4917787754671991 -1.4826601504876995 2.223093025854578
715 0.40597660021138027 -0.947897003194206 0.9868354188605183
719 -0.6774198896640167 -2.8425805719901684 -0.5501009329665425
720 1.5251413398119789 -0.7337897005411382 -1.2613799781988728
834 2.1315603940861374 -0.9354629477585408 1.4127133590202585
838 1.8873226550211024 -1.280111975919982 2.1523205725515857
840 0.4027633113217258 2.4852522674466426 1.7418456880357707
858 -1.4036548715197599 -0.4790390590656237 0.6453840213191292
859 2.818535227668819 1.0509650442913614 -0.017913090546832815
861 -2.4691429609462743 -1.3252087886721404 3.084303313272045
862 1.6363276979908978 0.9875531409163987 1.2039831027267986
863 -2.0503089142149244 -0.6643260893136435 0.32489052989488487
864 0.3450395232784086 3.092748117139226 0.16041330770190382
