LAMMPS data file via write_data, version 22 Jul 2025, timestep = 0, units = metal

864 atoms
1 atom types

0 24.299999999999997 xlo xhi
0 24.299999999999997 ylo yhi
0 24.299999999999997 zlo zhi

Masses

1 26.982

Atoms # atomic

1 1 0.0916679417210016 0.10309650487410672 24.242957419111836 0 0 -1
2 1 2.081260042384388 1.9875323544081915 0.041280538477599875 0 0 0
3 1 1.9103078798601905 0.04953681022372881 2.030169430209868 0 0 0
4 1 24.23288972991187 2.1026906288963234 1.931399860506132 -1 0 0
5 1 4.021574490485515 0.09246159004627799 0.001943907794516484 0 0 0
6 1 6.031875234058534 2.0270588217871537 0.04261777669313261 0 0 0
7 1 6.105812389213038 24.243825503542936 2.060238046159613 0 -1 0
8 1 4.0978963749892525 2.059374444370332 2.076286532176326 0 0 0
9 1 8.194626534718381 24.208169011822047 0.036581693178313626 0 -1 0
10 1 10.035245517580885 1.9214139819221636 24.28979416580395 0 0 -1
11 1 10.069438573822584 0.01911023615818017 2.0907391105339577 0 0 0
12 1 8.126260326237539 2.0223030743176595 2.057770056907446 0 0 0
13 1 12.226034723015516 24.215589721815466 24.256454552596644 0 -1 -1
14 1 14.12015753022635 2.1276105143048847 24.234913922201333 0 0 -1
15 1 14.13653596684408 0.0949947484838752 2.121737768490211 0 0 0
16 1 12.115636229815722 1.9131145128645535 1.9656177145524962 0 0 0
17 1 16.128568050362432 24.223222441432632 0.07957315830493959 0 -1 0
18 1 18.231494774504792 1.982675102091243 0.005440847522318766 0 0 0
19 1 18.205136728407876 24.29799435121845 1.9160609285212404 0 -1 0
20 1 16.207828997805635 2.0869661193070774 2.1295671940523047 0 0 0
21 1 20.23564624165448 24.25638348679821 24.197262617543924 0 -1 -1
22 1 22.336370517360685 1.9592852810278 0.01271823423575527 0 0 0
23 1 22.19471725044759 24.267828272621998 2.034777957931989 0 -1 0
24 1 20.17956080565674 2.073460672874218 1.9435289969847207 0 0 0
25 1 0.1199810767918737 4.091957641021328 0.06207264547332778 0 0 0
26 1 2.0935383632166955 5.999270583002022 24.235688514996173 0 0 -1
27 1 2.0306583087358896 4.10919492409527 2.1140892692138857 0 0 0
28 1 0.013105800027542643 6.024181062909393 2.071124318170419 0 0 0
29 1 4.060810222388622 4.057407685577593 24.24097150261559 0 0 -1
30 1 6.100136819623939 6.149527419560834 0.022340558945359933 0 0 0
31 1 5.956278726384639 4.0615543466301425 2.058903812800489 0 0 0
32 1 4.115117611747755 6.106700644526491 2.0177325567383004 0 0 0
33 1 8.21263798132196 4.036552078177478 0.06077792887612148 0 0 0
34 1 10.058135272065707 5.959517608324306 24.267443106624967 0 0 -1
35 1 10.17003237948056 3.9492019297644503 2.07183355111947 0 0 0
36 1 8.138397476486116 6.061387302142748 1.956387113170413 0 0 0
37 1 12.205526582941191 4.165279492621906 24.28243249637188 0 0 -1
38 1 14.17621572895032 6.107756468054259 24.277958587937967 0 0 -1
39 1 14.100110212324703 3.937338541302522 2.123863671486668 0 0 0
40 1 12.225180484482635 6.033402699678391 2.0191734947423328 0 0 0
41 1 16.09458234016531 3.975391158408202 0.04919936664830863 0 0 0
42 1 18.283486176290772 6.0121649190677156 24.2307947711138 0 0 -1
43 1 18.118072087174777 4.032569146539349 2.104645886849447 0 0 0
44 1 16.151207862417774 6.105543655562467 2.0122190383948473 0 0 0
45 1 20.31909052365883 4.134431133924252 24.214067864918178 0 0 -1
46 1 22.28971364139333 6.167170897709284 24.21627779995849 0 0 -1
47 1 22.285355291576288 4.091385522708942 2.0714801691875233 0 0 0
48 1 20.30450447109272 6.051645655341746 1.9085293287427767 0 0 0
49 1 0.0854346620875572 8.080365705574101 0.006413583926117798 0 0 0
50 1 2.120211447279533 10.023794427113046 24.217936488966426 0 0 -1
51 1 2.030548338054469 7.9909176814606955 2.0384723099197597 0 0 0
52 1 0.007383666731130178 10.142286750104878 1.923409012676407 0 0 0
53 1 4.081868293654112 8.030411444665123 24.245150486745473 0 0 -1
54 1 5.977581141638839 10.086247523986383 0.047135639156743715 0 0 0
55 1 6.094447262314821 8.0701377252164 1.969747712046256 0 0 0
56 1 4.117302713444132 10.16170485552247 2.123506766137903 0 0 0
57 1 8.156752363190405 8.176968141140867 0.0035481545531880695 0 0 0
58 1 10.066893055989357 10.081592013126516 0.04196461733522109 0 0 0
59 1 10.094263507132075 7.991764368792886 2.10874630203645 0 0 0
60 1 7.991004882534502 10.164060757383266 2.119149340565386 0 0 0
61 1 12.091956485762239 8.162656205977619 24.242853865839006 0 0 -1
62 1 14.292126397153886 10.188356965381352 24.260517164394496 0 0 -1
63 1 14.153273403727576 7.981096449383114 2.0930247819926704 0 0 0
64 1 12.160496227802007 10.1351006683568 2.1069330727504254 0 0 0
65 1 16.30275220300199 8.016275854462886 24.268285957727713 0 0 -1
66 1 18.321994937908364 10.238921425935775 24.257405702582282 0 0 -1
67 1 18.224498570021005 8.072466343088292 1.9868282849350143 0 0 0
68 1 16.185156069074363 10.243052932842659 2.0606422865743013 0 0 0
69 1 20.274671104990258 8.027261571272863 0.04522838302200118 0 0 0
70 1 22.317597371564524 10.139023884969774 0.019434687001367426 0 0 0
71 1 22.264542950889812 8.028375605106529 2.0737950254272643 0 0 0
72 1 20.240229630372593 10.074397672186326 2.1116764355668223 0 0 0
73 1 0.03040756340623255 12.249918168550318 0.04465882521339638 0 0 0
74 1 2.0801412643935255 14.2942306619879 24.20973603063716 0 0 -1
75 1 1.9794281277034562 12.063542311989488 2.1306376073442572 0 0 0
76 1 0.06173260507254515 14.194893454266662 2.0542858597958857 0 0 0
77 1 4.034007217373702 12.159302399814734 0.10543368625707629 0 0 0
78 1 5.975617982344989 14.261429272241157 24.196778557159366 0 0 -1
79 1 6.128590884773801 12.13200039328169 1.905609885379956 0 0 0
80 1 4.115558031921069 14.168842497409248 1.975853957231554 0 0 0
81 1 7.983087373675353 12.079489361666836 0.047701534520695706 0 0 0
82 1 10.119466957354204 14.061152252110723 0.08090122493025903 0 0 0
83 1 10.03661127024871 12.200619070050594 1.979710340348403 0 0 0
84 1 8.140858730376166 14.247681432232577 1.981831532938793 0 0 0
85 1 12.224248837509307 12.050212018946283 24.283402430202532 0 0 -1
86 1 14.283852330627315 14.136120853312834 0.07818162882615888 0 0 0
87 1 14.183665540241014 12.11173483073792 2.102300212251628 0 0 0
88 1 12.216442209270987 14.149211217506886 2.03293263825026 0 0 0
89 1 16.266265968357335 12.042130181757793 24.291964803241175 0 0 -1
90 1 18.316088444204574 14.138481746317577 24.217710359523867 0 0 -1
91 1 18.181251582911354 12.230353991147295 2.054529212596607 0 0 0
92 1 16.133379835213244 14.089890429021272 1.9884405605510997 0 0 0
93 1 20.161511588632834 12.205270152024584 24.185445077198295 0 0 -1
94 1 22.380472026535063 14.203349974820553 0.07802680903953817 0 0 0
95 1 22.232667342572316 12.265026612950034 2.0772838512492755 0 0 0
96 1 20.182331698002447 14.233848327146307 2.0488343479781572 0 0 0
97 1 24.27361771673598 16.312965181652906 24.26580804039063 -1 0 -1
98 1 2.0993053398068553 18.114846133817846 0.003971076553673995 0 0 0
99 1 1.9953957213137279 16.160888119824644 2.0316298927956398 0 0 0
100 1 24.21335767073247 18.107372000702828 1.931215812464345 -1 0 0
101 1 4.0635421519603305 16.282947997284563 24.246990361654657 0 0 -1
102 1 6.0675800723734215 18.31827638010181 0.016120371174123314 0 0 0
103 1 6.032252594045015 16.304348114572626 2.1237616221507833 0 0 0
104 1 4.150706944978194 18.32662424850353 1.9437445988686497 0 0 0
105 1 8.180184772368607 16.26546919917011 24.24083045206071 0 0 -1
106 1 10.233780830534538 18.184418793990936 0.03167060568540851 0 0 0
107 1 10.05942324268372 16.131439785273486 1.9734710914587932 0 0 0
108 1 8.072456668248613 18.264223254434402 1.9702372790059248 0 0 0
109 1 12.199035364766155 16.177375624783977 24.212125744313056 0 0 -1
110 1 14.113649356243503 18.144730384554585 24.24857320896749 0 0 -1
111 1 14.245879717222824 16.1154073640124 2.036566956365279 0 0 0
112 1 12.040761428927425 18.252335983248116 2.1008704511243246 0 0 0
113 1 16.13339540476603 16.136567902703103 24.276740731045948 0 0 -1
114 1 18.119392302527274 18.316428575912223 24.220075356755437 0 0 -1
115 1 18.142081508579235 16.268914691223255 2.034215389289528 0 0 0
116 1 16.12981691280837 18.257853570279128 1.9549556813621687 0 0 0
117 1 20.15635098696982 16.161038001776223 24.18569585301247 0 0 -1
118 1 22.183062712749493 18.155013180770915 24.271529216808975 0 0 -1
119 1 22.253032864340597 16.118350972402073 2.069793161640313 0 0 0
120 1 20.170988617185962 18.20068904449031 1.910770748670106 0 0 0
121 1 0.0034294884854133745 20.28941297434243 0.013859773228810992 0 0 0
122 1 1.9539135515172563 22.245060350527083 0.08431130869514836 0 0 0
123 1 1.9822309385599712 20.23038437743689 2.1052315818333214 0 0 0
124 1 24.213669080563665 22.351237033547942 1.9808228402937869 -1 0 0
125 1 4.14222659422654 20.142369165463545 24.228563945800325 0 0 -1
126 1 6.0913089424261395 22.29939535613376 0.09275054017675599 0 0 0
127 1 5.993600725177023 20.172388050240645 2.0009603945240193 0 0 0
128 1 3.9581421497222697 22.340110382188627 1.935193444280975 0 0 0
129 1 8.151919289199597 20.21749357764027 24.20455939998131 0 0 -1
130 1 10.033084429366554 22.33000436366303 24.278340084561304 0 0 -1
131 1 10.220140223119008 20.151729961159514 2.080457207940266 0 0 0
132 1 8.21855098586462 22.281419426671423 1.9163040666334814 0 0 0
133 1 12.122357815882356 20.30781153478558 0.11846514120626501 0 0 0
134 1 14.237885691757725 22.234821372106587 0.07780099542709114 0 0 0
135 1 14.060655952024112 20.149585669273318 2.0413434766495335 0 0 0
136 1 12.257851665945653 22.217949548616513 1.9780635977876668 0 0 0
137 1 16.23368232089732 20.188767321248896 24.282368230196816 0 0 -1
138 1 18.16747004396397 22.329028902470146 24.203763815771676 0 0 -1
139 1 18.111333731937375 20.261032671505134 1.9311099868016828 0 0 0
140 1 16.09344034542024 22.20688547799917 2.0242287320826335 0 0 0
141 1 20.20607515793111 20.245179348157336 0.09930448035677172 0 0 0
142 1 22.17975088243594 22.223081100838296 0.03906178925142706 0 0 0
143 1 22.239039569349977 20.18304206507888 2.022987780700432 0 0 0
144 1 20.364138202403737 22.27576779959759 1.9694078367130867 0 0 0
145 1 0.08306386223205545 24.27433253415596 3.936901559274132 0 -1 0
146 1 2.111562192126439 1.9957630690609864 3.9449017079988966 0 0 0
147 1 1.9792832964632117 0.11936365719855001 6.059986536030185 0 0 0
148 1 0.07601829560288148 2.1444941976291565 6.093979553235219 0 0 0
149 1 4.016242508183346 24.29783503750238 4.143475302557216 0 -1 0
150 1 6.046448421856131 1.9186261360038193 3.984467816191943 0 0 0
151 1 6.055868385741891 0.05495916397076061 6.013668856573602 0 0 0
152 1 4.067895252359051 2.0705063985686314 6.0210407429868535 0 0 0
153 1 8.199570235078953 24.256940971984033 3.9569161356738376 0 -1 0
154 1 10.20485349217423 2.0426429722726542 3.935434986504463 0 0 0
155 1 10.085002779178323 0.006709650068874318 6.044088707570493 0 0 0
156 1 8.124614638120223 1.9632228865745582 6.027054658602948 0 0 0
157 1 12.228054145555035 0.01602434350923838 4.091141359769339 0 0 0
158 1 14.204336569304267 2.1247202968502976 4.129029162954087 0 0 0
159 1 14.089972015002262 24.194656143046288 6.040796178991811 0 -1 0
160 1 12.057499351514268 2.086600900339708 6.041332009474901 0 0 0
161 1 16.137372314062606 0.05648245026193672 4.150541552370666 0 0 0
162 1 18.17386514283198 2.041455577116672 4.1388845999021475 0 0 0
163 1 18.316986157545813 24.23134987248636 6.192306878304716 0 -1 0
164 1 16.216706417639138 2.009761260982957 6.037513340563752 0 0 0
165 1 20.24463585270319 0.0847763825043926 4.006660751326317 0 0 0
166 1 22.16765432932072 1.9463128933502887 3.9557985383019774 0 0 0
167 1 22.320800031165497 0.08112379854597328 6.082682162172944 0 0 0
168 1 20.216772508996897 2.0505587108738528 6.040253656844261 0 0 0
169 1 24.197477376431912 4.15226569119015 3.9494718328581526 -1 0 0
170 1 1.9660019175247296 6.1742278381340325 4.01227551870154 0 0 0
171 1 2.0088844234980106 4.155505731061802 6.189821955708237 0 0 0
172 1 0.008538138553750772 6.05549467288912 6.088967247444189 0 0 0
173 1 4.005838910637348 4.154571081914273 4.056173733196302 0 0 0
174 1 6.015246749064068 5.962111519801947 3.933313311339967 0 0 0
175 1 6.18824833117111 3.97470199285294 6.06139387936629 0 0 0
176 1 4.0521948177191405 6.003301405593892 6.076723816563246 0 0 0
177 1 8.047575490133639 3.991262676073826 3.971796772797497 0 0 0
178 1 10.223824897473131 5.985051830909239 4.051122091580704 0 0 0
179 1 10.007036461495812 4.0768083601011 6.163108219191482 0 0 0
180 1 8.077440074243322 6.110327807513683 6.069460882486058 0 0 0
181 1 12.050043530622515 4.081619172651143 4.11343474776644 0 0 0
182 1 14.29400098409457 5.964539677467913 3.943359203233085 0 0 0
183 1 14.190746152613192 3.975586969948181 6.055203919084837 0 0 0
184 1 12.160859613144238 6.192518115228748 6.001962649583333 0 0 0
185 1 16.126996997504957 3.968537065851752 4.102465770399415 0 0 0
186 1 18.116546779950866 6.101730634265919 4.031770107309227 0 0 0
187 1 18.306888437998428 3.9489774395986355 6.188827334267006 0 0 0
188 1 16.283786182014172 6.189361112189647 5.982212571402644 0 0 0
189 1 20.313553005020857 3.945355385549066 4.00796492315734 0 0 0
190 1 22.376273660539308 6.101412684203317 3.9679834051607097 0 0 0
191 1 22.348266166203313 3.994455379091415 6.136556389416361 0 0 0
192 1 20.19030696230955 6.014115536575725 6.149823228211525 0 0 0
193 1 0.0819936464177415 8.087215342981375 3.9782694879771534 0 0 0
194 1 2.002144082420107 10.22559323473861 4.160496251839444 0 0 0
195 1 2.0789251772006625 8.18045321153498 6.09212626839854 0 0 0
196 1 0.09842717706152573 10.070564873062803 6.063821566528091 0 0 0
197 1 4.074514328308643 8.032315883362813 4.083051678795857 0 0 0
198 1 6.059410473976475 10.191836122622172 4.164712910835963 0 0 0
199 1 6.170642929550093 8.050716948430388 6.014752269526827 0 0 0
200 1 4.079948244611709 10.18514718898579 6.088805284152647 0 0 0
201 1 8.177531107309056 8.205320543304701 3.9323713221039487 0 0 0
202 1 10.209736400267452 10.129679295068923 3.9749122233897967 0 0 0
203 1 10.096757919272296 8.155349209464783 6.089163474614807 0 0 0
204 1 8.19806745818726 10.02476975330141 6.065243736780362 0 0 0
205 1 12.088106775646146 8.020578284804047 4.089232701621592 0 0 0
206 1 14.146602428262867 10.207011814025236 4.102558322144932 0 0 0
207 1 14.107024357864644 8.033382631080869 6.036880576164405 0 0 0
208 1 12.048843913534116 10.15465476791824 6.002684401854725 0 0 0
209 1 16.16569972507921 8.095279406288302 4.150981487511182 0 0 0
210 1 18.29308182665523 10.056260594488709 4.106811571725091 0 0 0
211 1 18.328948272980725 8.19862398705381 5.968350413410621 0 0 0
212 1 16.309750399473007 10.059963942829038 5.9739871276258425 0 0 0
213 1 20.182483177544775 8.064764995018376 3.935271273853849 0 0 0
214 1 22.34351984256344 10.21799396372074 4.119548254473855 0 0 0
215 1 22.26214014065784 8.204344036385576 6.1052195323958145 0 0 0
216 1 20.357144478516254 10.182250422694372 6.122854224298081 0 0 0
217 1 0.017183966290757056 12.240921448753642 4.086789202502365 0 0 0
218 1 2.0301766415523255 14.058814569936978 3.9614769308043067 0 0 0
219 1 2.1016594591162443 12.245529366720247 6.037066467219063 0 0 0
220 1 0.08415639067262244 14.271458034765187 6.045190298524773 0 0 0
221 1 4.025884221352583 12.196108272860807 4.031741971607199 0 0 0
222 1 6.066849552072513 14.230421682752398 4.082222019579365 0 0 0
223 1 6.0912803258263875 12.173436164103185 6.126610082244318 0 0 0
224 1 4.0715681606445315 14.271075952637975 6.103535986462857 0 0 0
225 1 8.02176903450944 12.042163000149728 4.113543516482945 0 0 0
226 1 10.051216929539208 14.182934765465527 3.969603179115617 0 0 0
227 1 10.129836445136386 12.076133407226825 6.119175261261023 0 0 0
228 1 8.084804803852366 14.149338346726418 6.059593430917985 0 0 0
229 1 12.080057695941093 12.149695681985325 3.975327127373464 0 0 0
230 1 14.099407867064889 14.258021759597128 4.036713548948389 0 0 0
231 1 14.110110259230765 12.108126891478022 5.993665071147803 0 0 0
232 1 12.037870897430865 14.10117312057231 6.066637458853254 0 0 0
233 1 16.318124807997663 12.19364801675251 3.9622175594569264 0 0 0
234 1 18.175930580790585 14.105271347412033 4.040535954064939 0 0 0
235 1 18.32108663643528 12.11809856776525 6.067628430590325 0 0 0
236 1 16.089983202856956 14.082690416885395 5.9878365928460076 0 0 0
237 1 20.344655944804966 12.072464337070688 4.108113147066027 0 0 0
238 1 22.23717128638279 14.147810235588256 4.031629531840621 0 0 0
239 1 22.31208616360886 12.17715177416203 6.174868341265184 0 0 0
240 1 20.23806367137845 14.20112485758314 5.9554813998567315 0 0 0
241 1 24.214058177338007 16.095786519914764 4.054040207473579 -1 0 0
242 1 2.109184942899358 18.32133530950934 4.117546923545909 0 0 0
243 1 2.1018403736673483 16.216160227123723 5.999937268404726 0 0 0
244 1 24.263522560598105 18.108675972374 6.057067689905905 -1 0 0
245 1 4.042461138084746 16.2143477903187 3.993311886444367 0 0 0
246 1 6.144128292291018 18.2242085351605 3.9478504425370367 0 0 0
247 1 6.08331802139446 16.080985576697152 5.959587549047818 0 0 0
248 1 3.953649213921115 18.137338372185983 6.106021329830876 0 0 0
249 1 7.9900742973806675 16.19871607689127 4.071104311598979 0 0 0
250 1 10.116441471740343 18.141815539950883 3.9687799545185545 0 0 0
251 1 10.062838632640354 16.173898786424612 6.111903438454914 0 0 0
252 1 8.219399403221626 18.33076994586073 6.0704800813437805 0 0 0
253 1 12.184554856230761 16.163468670436863 3.9879440323905757 0 0 0
254 1 14.110426544535636 18.218934010469322 4.0989139579278016 0 0 0
255 1 14.255247949008012 16.12727897769179 6.17277806593933 0 0 0
256 1 12.253237523242476 18.13805313629706 6.119061744699283 0 0 0
257 1 16.104852213945637 16.171159784314764 4.132494978216707 0 0 0
258 1 18.167170118457715 18.27818091884869 4.101703089965369 0 0 0
259 1 18.333369975568896 16.21417938648452 6.067948645331406 0 0 0
260 1 16.164334758633903 18.319288360017485 6.059466813888617 0 0 0
261 1 20.230218332046743 16.129506709635958 4.149268851568582 0 0 0
262 1 22.288845338138678 18.123598096789138 4.028212735065358 0 0 0
263 1 22.32182535484751 16.233738922101324 6.00506375695116 0 0 0
264 1 20.25839463746566 18.19367188536034 6.103377251321625 0 0 0
265 1 24.19894268018144 20.25962580951379 4.070980498260344 -1 0 0
266 1 2.0176926954242833 22.341131995928535 4.090455570891711 0 0 0
267 1 2.067371418030174 20.30642283313741 6.133556540468035 0 0 0
268 1 24.29397995469811 22.376098611197012 6.039358388224783 -1 0 0
269 1 3.9999093314958314 20.296134450438494 3.991708519785529 0 0 0
270 1 5.960240124689992 22.38577566470521 3.9365967005149445 0 0 0
271 1 6.178397851392345 20.217688351165357 6.133118036174269 0 0 0
272 1 4.115763802614884 22.367230548361423 6.033826310447801 0 0 0
273 1 7.9803263906390995 20.335647471344867 4.007050893156347 0 0 0
274 1 10.215797902518323 22.155347625464362 4.012541179546407 0 0 0
275 1 10.080254451593037 20.131567924172415 6.147101565800654 0 0 0
276 1 8.01192381677773 22.298588583312736 6.048319737172368 0 0 0
277 1 12.257939176479324 20.223739088035067 4.0428526053730645 0 0 0
278 1 14.083742355903956 22.347775677793088 4.15081666844935 0 0 0
279 1 14.168159283452274 20.238076982399484 6.084843188137674 0 0 0
280 1 12.141268594205037 22.16626280408877 6.128948319970605 0 0 0
281 1 16.239489292464913 20.34653845778505 3.9318599933767038 0 0 0
282 1 18.150893505535038 22.367147527398608 4.053492988442766 0 0 0
283 1 18.147511140388673 20.13473651245457 6.121564823950903 0 0 0
284 1 16.297558849219957 22.266578839845756 6.140561287675779 0 0 0
285 1 20.21114995427483 20.33728149710562 4.110121854180527 0 0 0
286 1 22.166947655422586 22.319244687447437 4.1504619290961235 0 0 0
287 1 22.237858797685643 20.25781270260355 6.1030926578809 0 0 0
288 1 20.234040944140425 22.371148168098248 6.117261227295855 0 0 0
289 1 0.10341408278020754 0.0004892869482232687 8.163445738788436 0 0 0
290 1 1.914532876615195 2.0440572715825667 7.995563488200103 0 0 0
291 1 2.109947244247863 24.248334073828687 10.09577883877362 0 -1 0
292 1 24.279753614859537 2.0640049443016784 10.241098878307314 -1 0 0
293 1 4.020769379404731 0.0009596553263066542 8.148927069236024 0 0 0
294 1 6.157443600167726 2.1345880189862045 8.185835101141517 0 0 0
295 1 6.0448232876182635 24.239995000166815 10.100967803679392 0 -1 0
296 1 4.043341167957215 1.9500098569155715 10.005665180012894 0 0 0
297 1 8.084447301935613 24.265803631844836 8.161640416207556 0 -1 0
298 1 10.229499751359457 2.032321098394376 8.02570071427417 0 0 0
299 1 10.226055343365788 24.2571559488015 10.045031506884857 0 -1 0
300 1 7.993404228470011 2.069867895471336 10.139719186748714 0 0 0
301 1 12.183316560235486 0.03142787783938827 8.068342846598636 0 0 0
302 1 14.234103128509178 2.0112808537605593 8.162309153723674 0 0 0
303 1 14.268526749337802 24.20407612045485 10.012356484722046 0 -1 0
304 1 12.199405124601629 1.9769291796125141 10.038721747525837 0 0 0
305 1 16.13293413198224 0.10395622550694096 8.09228209515674 0 0 0
306 1 18.19869068913799 1.9244123422444854 8.083236103068682 0 0 0
307 1 18.176844159509912 24.224788883125775 10.131758694931287 0 -1 0
308 1 16.24184591114607 2.1292286319957245 10.135617952146855 0 0 0
309 1 20.351026754593956 24.256664460597868 8.159589268388036 0 -1 0
310 1 22.194956223871536 1.9292546089479021 8.107212587393454 0 0 0
311 1 22.258030961799914 24.221374971178065 10.114140589809576 0 -1 0
312 1 20.35096262465276 2.103832538928293 10.023481767819487 0 0 0
313 1 24.191279206914487 4.139630611860021 8.04169353137803 -1 0 0
314 1 1.985814073086164 6.037126359158254 8.03771837278163 0 0 0
315 1 2.123285546814224 4.015185306670696 10.114449214390223 0 0 0
316 1 0.018127459240205326 6.18320745013105 10.047614352573927 0 0 0
317 1 4.063740178893199 4.101186658000195 7.994161009273566 0 0 0
318 1 6.097614670760284 5.999771468101428 8.054064380710043 0 0 0
319 1 5.990234381312147 4.034246713269616 10.079509922449715 0 0 0
320 1 4.083502249006881 6.107299058657278 10.095278852884787 0 0 0
321 1 8.01909985991153 3.9613455330726435 8.004374351922596 0 0 0
322 1 10.16336687873973 6.027130978625328 8.045357755900062 0 0 0
323 1 10.052837395168766 3.933100601436151 10.036808337397785 0 0 0
324 1 8.098879058751686 5.955340439602891 10.206768405792195 0 0 0
325 1 12.111263452172865 4.124840669387411 8.107130394227397 0 0 0
326 1 14.06399655227037 5.96005400810626 8.202714241921303 0 0 0
327 1 14.262508455350766 4.084609080327027 10.039813056343613 0 0 0
328 1 12.268503686226206 6.006454403871416 10.079165866893794 0 0 0
329 1 16.162910569907588 3.9679484368664903 8.099378415103711 0 0 0
330 1 18.172150702097987 6.0768501609013645 7.995654269240635 0 0 0
331 1 18.27616454966886 4.052586284560424 10.152684607053029 0 0 0
332 1 16.1367098813023 6.037975047753646 10.166627595537168 0 0 0
333 1 20.28515184912605 3.967128261494044 7.994690930403159 0 0 0
334 1 22.208483966278603 6.060021244485406 8.112056066231828 0 0 0
335 1 22.26832164371075 4.126865846606375 10.089283913338688 0 0 0
336 1 20.13246994804706 6.18741682693009 10.234610214042295 0 0 0
337 1 24.24626751750068 8.13816663395528 8.046616886400905 -1 0 0
338 1 1.9748970873234313 10.205346644912076 8.006061037269449 0 0 0
339 1 2.111159258841611 8.018663350957754 10.139939546983195 0 0 0
340 1 24.22780203661313 10.133829356938987 10.200002073550133 -1 0 0
341 1 4.1698049490897935 8.061779352166587 8.205571863830821 0 0 0
342 1 6.065387036702775 10.079925863554202 8.218988755456632 0 0 0
343 1 6.008089734750375 8.17917194956875 10.207956401986515 0 0 0
344 1 4.092672130876534 10.195503641902704 10.199709458739827 0 0 0
345 1 8.161811453970993 8.00510689047403 8.031508197026097 0 0 0
346 1 10.09885413580288 10.131460438988386 8.200598077802265 0 0 0
347 1 10.137814138295509 8.187222332603866 10.150744073198057 0 0 0
348 1 8.127881882632096 10.015801397641562 10.104090161742219 0 0 0
349 1 12.039381360192493 8.21252075526515 8.036333741385645 0 0 0
350 1 14.220593200105052 10.089914165625775 8.092381672389983 0 0 0
351 1 14.189365920039995 8.108018112204977 10.005411829054548 0 0 0
352 1 12.106501777021446 10.090366399476942 10.038076008946204 0 0 0
353 1 16.098933275015526 8.191553185978696 8.194396743948756 0 0 0
354 1 18.20841980108219 10.101596788399199 8.122222625344163 0 0 0
355 1 18.19450112615223 8.145427240545594 10.18063184981031 0 0 0
356 1 16.182203258919625 10.055172662125049 10.136932335706396 0 0 0
357 1 20.208868091999957 7.996022243283699 7.985842869135477 0 0 0
358 1 22.318608682604324 10.09612853088003 8.137218500672475 0 0 0
359 1 22.199842545634528 8.048664479511167 10.128907144201877 0 0 0
360 1 20.13831965301573 10.153408235417869 10.22221266812515 0 0 0
361 1 24.203141473654256 12.168747707111176 8.072713417565781 -1 0 0
362 1 1.9354736685149714 14.065946731125445 8.121710025361605 0 0 0
363 1 1.938941906259368 12.251618501200161 10.187149671140197 0 0 0
364 1 0.07918817413933026 14.290642759723422 10.212862671561474 0 0 0
365 1 4.0630839883038234 12.212591422359733 8.154035600057819 0 0 0
366 1 6.09904255054148 14.098146950659876 8.110799740539305 0 0 0
367 1 6.064204230359384 12.145499650181968 10.087620608360796 0 0 0
368 1 4.164272768830076 14.277425727090996 10.074195218379234 0 0 0
369 1 7.983544441872995 12.08143455943625 8.200640445081815 0 0 0
370 1 10.069253957376002 14.211261618470894 8.189021640331028 0 0 0
371 1 10.165384227931678 12.16771884771889 10.085673611387923 0 0 0
372 1 8.055252537725146 14.264401546516176 10.0567922973874 0 0 0
373 1 12.239239800148288 12.243321092302594 8.147598329711519 0 0 0
374 1 14.26323690263938 14.212622660062099 8.02404766371662 0 0 0
375 1 14.242402278272156 12.180090920138214 10.183094762981913 0 0 0
376 1 12.099381074565173 14.222720216888803 10.078685250130336 0 0 0
377 1 16.283728656230366 12.257525263795406 8.077108609423558 0 0 0
378 1 18.274002041224854 14.072306866169583 8.216499712204794 0 0 0
379 1 18.136404273561855 12.081625754112203 10.079049363804073 0 0 0
380 1 16.28195750342773 14.274760109884552 10.153166829677376 0 0 0
381 1 20.203245298226012 12.103727284592448 7.994472145295921 0 0 0
382 1 22.279297765700285 14.167548124693589 8.136331725156088 0 0 0
383 1 22.163581604477287 12.261026449795358 10.146541710599113 0 0 0
384 1 20.290436311178112 14.108081970537585 10.073678825194332 0 0 0
385 1 0.07153349740036459 16.303490807927908 8.190008844346742 0 0 0
386 1 1.960971484918134 18.257747019078927 8.15914965958295 0 0 0
387 1 1.9784569957076836 16.11172685904043 10.198319892526287 0 0 0
388 1 24.201064692410203 18.13928533831345 10.23868103418205 -1 0 0
389 1 4.098683839146366 16.269284532977867 8.085145758998182 0 0 0
390 1 6.126456732531755 18.338303661231556 7.994634318805595 0 0 0
391 1 5.956292371228939 16.200883244779373 10.089695006909173 0 0 0
392 1 4.074293363794821 18.28356529955685 10.191989652042738 0 0 0
393 1 8.144787928091729 16.310707437689747 8.039905251553238 0 0 0
394 1 10.023041977071223 18.216508636042246 8.1856459620435 0 0 0
395 1 10.211625690630928 16.27798243401478 10.13576848643402 0 0 0
396 1 8.053415733498248 18.163232905072267 10.005435549617017 0 0 0
397 1 12.135443733085618 16.112821970001246 8.098849810938747 0 0 0
398 1 14.114476273236551 18.12272428673586 8.032087169611867 0 0 0
399 1 14.18634367844618 16.29320364496354 10.118660902247607 0 0 0
400 1 12.226779670024653 18.180914104355455 10.053351902201936 0 0 0
401 1 16.26809492611703 16.111423248961298 8.11054529255747 0 0 0
402 1 18.238900053526226 18.32319961531935 8.060934672356087 0 0 0
403 1 18.230034596121417 16.096457012713167 10.118012670219416 0 0 0
404 1 16.18314799596702 18.193368217725475 10.089635312112344 0 0 0
405 1 20.174776739424455 16.242659506836283 8.198331397389216 0 0 0
406 1 22.25417069283275 18.30683444010179 8.051434790823345 0 0 0
407 1 22.317107620314744 16.14277462992015 10.018205067968557 0 0 0
408 1 20.140393379000198 18.30652085634019 10.086032509617988 0 0 0
409 1 24.248203932823706 20.193498968064553 8.167156260920295 -1 0 0
410 1 2.0140960202129072 22.371811718333888 8.014550037698145 0 0 0
411 1 2.054921131054834 20.334449638596013 10.11007588320648 0 0 0
412 1 24.234037403340466 22.201637943259737 10.008912366406951 -1 0 0
413 1 4.160470419484409 20.28634027447381 8.070993081336372 0 0 0
414 1 5.976180477785496 22.2152901408357 7.996397025667315 0 0 0
415 1 6.094532863674467 20.218839776780847 10.095128355701513 0 0 0
416 1 3.954267624702429 22.26096837372797 10.215457245991779 0 0 0
417 1 8.115131203222615 20.160132562494898 8.017977851758701 0 0 0
418 1 10.115199096999223 22.191223265955326 8.144430911207772 0 0 0
419 1 10.19470796158058 20.151710284809447 10.08975679237617 0 0 0
420 1 8.12074424683151 22.203556497194132 10.094048341777663 0 0 0
421 1 12.038450009044467 20.30930201039617 8.068888728436496 0 0 0
422 1 14.12622432201692 22.342180138391992 7.996585954211925 0 0 0
423 1 14.129823393558535 20.32677553830518 10.011472295190428 0 0 0
424 1 12.19947008345717 22.358692664673406 10.10761516598175 0 0 0
425 1 16.21955658636035 20.137546958442567 8.10173054421401 0 0 0
426 1 18.135120919807868 22.237299210877296 8.062837214732001 0 0 0
427 1 18.21615165190359 20.335813543668863 10.233228442551674 0 0 0
428 1 16.318811282067937 22.33621771582459 10.13114986388299 0 0 0
429 1 20.235612262424834 20.355294574157007 8.025907856806137 0 0 0
430 1 22.357913533469155 22.362757016107324 7.99216971584231 0 0 0
431 1 22.184932797825862 20.170533059295515 10.124127579722147 0 0 0
432 1 20.20978588402261 22.236352768056722 10.020972729369985 0 0 0
433 1 24.286659530935182 24.246736427651125 12.149139532539591 -1 -1 0
434 1 1.9954242659408712 1.9856376682224859 12.267289815320302 0 0 0
435 1 1.9541639799853618 0.09901161397761274 14.10319612173745 0 0 0
436 1 24.265599599334223 2.017466010317423 14.271235404934842 -1 0 0
437 1 4.053906973881603 24.204510028112914 12.130042493799719 0 -1 0
438 1 6.1350856453646365 1.9644416434594623 12.185701623184466 0 0 0
439 1 6.093046194118468 24.242384549110373 14.232116898082715 0 -1 0
440 1 4.064926688920207 2.097860681914194 14.264480931856427 0 0 0
441 1 8.03286238523799 0.09810869491571035 12.262835448343694 0 0 0
442 1 10.14388164400071 2.088790719929985 12.200629863259675 0 0 0
443 1 10.039925063268713 0.06553835724738351 14.078170256774484 0 0 0
444 1 8.003271014179695 2.0609353181328323 14.05989185851295 0 0 0
445 1 12.109378404728778 0.0728482765857355 12.030984576456706 0 0 0
446 1 14.195336142247697 2.0545427570815864 12.115118270220755 0 0 0
447 1 14.136065598801274 0.10951905302215323 14.061724143329412 0 0 0
448 1 12.11179410901004 2.1385901317715597 14.084344684607043 0 0 0
449 1 16.09832618762661 24.268235440444307 12.043047547532732 0 -1 0
450 1 18.115638407958034 2.1447225507347483 12.166910198916172 0 0 0
451 1 18.276450289306904 0.005012381172279081 14.178090362494387 0 0 0
452 1 16.170708174524226 1.9572892286871975 14.24006654572909 0 0 0
453 1 20.28158007632549 24.186342802497716 12.073481579145174 0 -1 0
454 1 22.191320362704023 2.021335966529481 12.248589460988802 0 0 0
455 1 22.332955836960092 24.203751788299414 14.131305948270626 0 -1 0
456 1 20.16532593114084 2.1079246840825885 14.210165376064909 0 0 0
457 1 24.288098770989148 3.9460440146625246 12.161754433052499 -1 0 0
458 1 2.090298890855768 6.0334586128957834 12.12390693944595 0 0 0
459 1 1.9444739009996288 4.007854100762798 14.068871520354351 0 0 0
460 1 24.27861850635084 5.9962362386105745 14.232462327935481 -1 0 0
461 1 4.1142416472100845 3.9993646598930304 12.161838822165427 0 0 0
462 1 5.986663641385577 6.045820767400237 12.054637695785907 0 0 0
463 1 6.156331452709311 3.9477256853961036 14.130594452319476 0 0 0
464 1 4.0913317862159255 6.178330931059704 14.21795832045514 0 0 0
465 1 8.094778897033436 4.138922440953982 12.189465113579976 0 0 0
466 1 10.168903428876728 5.959929131159991 12.073907405978025 0 0 0
467 1 10.185789458575094 4.058430271618269 14.262575088240007 0 0 0
468 1 8.024331293685515 6.0710529724676405 14.077308263640061 0 0 0
469 1 12.099940943676017 4.147440362860188 12.070178591180674 0 0 0
470 1 14.098949059678217 6.12684601180807 12.085920458238533 0 0 0
471 1 14.263213390059867 3.9324467362102338 14.137295485400731 0 0 0
472 1 12.133999681930987 5.957654214130087 14.264376884386584 0 0 0
473 1 16.297490369294533 4.090636733211873 12.091575091956916 0 0 0
474 1 18.195516727497107 6.1496390439358715 12.128411430203546 0 0 0
475 1 18.259540935454208 4.01950217891927 14.238121096167303 0 0 0
476 1 16.141675085603108 5.968163731439581 14.257834305038132 0 0 0
477 1 20.178749626748612 4.144976763937145 12.184471491609917 0 0 0
478 1 22.263073850138145 6.032199271841533 12.078161840647534 0 0 0
479 1 22.2113221953699 3.9771375819142616 14.056339232996729 0 0 0
480 1 20.301819351879796 6.042847043726521 14.26026391165576 0 0 0
481 1 0.07363059671299094 8.169438955238759 12.090520697823035 0 0 0
482 1 1.9966836550513671 10.132190448328476 12.039865056690696 0 0 0
483 1 2.0970327901616845 8.195104247431784 14.192086586010216 0 0 0
484 1 24.290261961161278 10.137781237649163 14.189261169496113 -1 0 0
485 1 4.144076557594387 8.124703488864332 12.141537342831276 0 0 0
486 1 6.182909587020012 10.081429045347697 12.092965158737712 0 0 0
487 1 6.1472156981528805 8.149238855470548 14.212443893513383 0 0 0
488 1 3.9882631031695115 10.032974969981227 14.070320474475304 0 0 0
489 1 8.02858251361576 8.02630634008269 12.220657769791156 0 0 0
490 1 10.153203247370293 10.136978552514677 12.113532114179586 0 0 0
491 1 10.217329551713695 8.042775652065302 14.085384261547766 0 0 0
492 1 8.056885242833236 10.055276298211085 14.248744033702529 0 0 0
493 1 12.038780815493677 8.199166002263858 12.033000048661137 0 0 0
494 1 14.064562050890904 10.154389323438233 12.17635902638843 0 0 0
495 1 14.286433634157959 8.005089292835951 14.290744693836077 0 0 0
496 1 12.181736528236295 10.240830067431475 14.290943320801453 0 0 0
497 1 16.0921741333288 8.110658857175455 12.253412547886096 0 0 0
498 1 18.222813333961092 10.093703884113907 12.236180302447721 0 0 0
499 1 18.109179283307945 8.141214556694596 14.228054366080581 0 0 0
500 1 16.29590821656208 10.214395758867914 14.249519293026308 0 0 0
501 1 20.2754304443977 8.069478992116395 12.06342050024933 0 0 0
502 1 22.308608505499365 10.023151927859594 12.069451536182058 0 0 0
503 1 22.168746804228864 8.14253867454945 14.162503152614226 0 0 0
504 1 20.171167133618688 10.221014729317284 14.134555635601075 0 0 0
505 1 24.196074322059783 12.19113085880928 12.236344007610501 -1 0 0
506 1 2.072773441526933 14.063231743168192 12.140907427831975 0 0 0
507 1 1.9837503663817189 12.227407777550352 14.127517288808018 0 0 0
508 1 0.05646098789594181 14.154823567094198 14.189692152205245 0 0 0
509 1 4.047733285444664 12.213328468475178 12.111569662318363 0 0 0
510 1 6.134853692734545 14.056013789512688 12.268760339766162 0 0 0
511 1 6.097847570210158 12.149112522136006 14.139159539865403 0 0 0
512 1 3.9918878557448685 14.284191504004033 14.0766077958148 0 0 0
513 1 8.180912303235806 12.203080484202633 12.193697993682555 0 0 0
514 1 10.219078848312646 14.23820359063484 12.172747799746107 0 0 0
515 1 10.090348571615921 12.243443148794324 14.114001786214764 0 0 0
516 1 8.065265806357035 14.077407442677023 14.096889072750642 0 0 0
517 1 12.07258292546616 12.041228309763234 12.104202190709394 0 0 0
518 1 14.25411916548345 14.090814280377613 12.040610306565933 0 0 0
519 1 14.070852081261505 12.055929762137088 14.256512238067346 0 0 0
520 1 12.238925676815642 14.268850240508955 14.23599223402375 0 0 0
521 1 16.215796821441405 12.207177965723526 12.180069915312373 0 0 0
522 1 18.123190769151872 14.267257135534777 12.07567693302672 0 0 0
523 1 18.202710445382497 12.169455543635157 14.284321876126025 0 0 0
524 1 16.229710313114204 14.076232510405234 14.269802380788512 0 0 0
525 1 20.181965476224182 12.053758899841345 12.225829633491033 0 0 0
526 1 22.393977178930758 14.144446289282964 12.23378397880298 0 0 0
527 1 22.386546107116875 12.265422313322974 14.157820019248323 0 0 0
528 1 20.353879700854364 14.081132259306559 14.059882165344842 0 0 0
529 1 0.0946715172634793 16.144190647296696 12.082209115574232 0 0 0
530 1 1.961802938532458 18.31198791502369 12.075887803158668 0 0 0
531 1 2.1225517318665754 16.311957481536993 14.244392192265666 0 0 0
532 1 24.209893139577417 18.198996877714055 14.180523740186134 -1 0 0
533 1 4.009844007603752 16.178235796251442 12.119027598020166 0 0 0
534 1 6.0881422648826335 18.307045882438327 12.055146141026702 0 0 0
535 1 5.956272935942407 16.114234384053496 14.152292787105447 0 0 0
536 1 4.127627266066907 18.26646078649976 14.286438701521343 0 0 0
537 1 8.172504888341065 16.309658348294747 12.217859789816597 0 0 0
538 1 10.079371869151654 18.153004831843077 12.207208786652053 0 0 0
539 1 10.00645364038714 16.271333986647115 14.2853135780945 0 0 0
540 1 8.180961725060344 18.148713089210776 14.10089036556235 0 0 0
541 1 12.267951079866824 16.20379932174636 12.165200591075791 0 0 0
542 1 14.083986425748552 18.31985755595139 12.100942875030889 0 0 0
543 1 14.287127340581327 16.244213150369102 14.22541825350859 0 0 0
544 1 12.15123271694464 18.30327368860984 14.280884465568644 0 0 0
545 1 16.243707027921317 16.14401827356965 12.065123885141276 0 0 0
546 1 18.18431407406894 18.176642876710574 12.051828874657781 0 0 0
547 1 18.257068158905984 16.129546732888347 14.226939654430346 0 0 0
548 1 16.17002690863331 18.227253400069777 14.127894972782999 0 0 0
549 1 20.288851006626548 16.128868372388588 12.080734735005876 0 0 0
550 1 22.212367403161416 18.198944933942492 12.24250477148802 0 0 0
551 1 22.186250576726742 16.188443046374452 14.097280415428001 0 0 0
552 1 20.20745111394555 18.305872082841056 14.272096309651198 0 0 0
553 1 0.054823762483347104 20.312976057614655 12.188600329495314 0 0 0
554 1 1.9415359078145287 22.294002638784704 12.08735005452174 0 0 0
555 1 2.0525006814987865 20.213953950108937 14.109039480934868 0 0 0
556 1 24.24509530510059 22.291792825673145 14.172021088542891 -1 0 0
557 1 3.961448264807206 20.200986614707386 12.062033387027695 0 0 0
558 1 6.058306035186772 22.259533384081223 12.122586253142256 0 0 0
559 1 6.096530751875383 20.197346769565414 14.112156085882873 0 0 0
560 1 4.034747133788069 22.240077576080836 14.27382119066027 0 0 0
561 1 8.016396929936668 20.333201445584745 12.036695942807334 0 0 0
562 1 10.028846353378075 22.38066122531223 12.23821382267783 0 0 0
563 1 10.037129757456542 20.134833572099375 14.17284627417002 0 0 0
564 1 8.065753800312873 22.219121858470196 14.151075308628414 0 0 0
565 1 12.24348153679328 20.35418888467559 12.212584742653455 0 0 0
566 1 14.099578680640356 22.348885522463306 12.183976040777738 0 0 0
567 1 14.28387795779336 20.161836633026525 14.17329127678568 0 0 0
568 1 12.120216374513792 22.34160645333426 14.269661188970627 0 0 0
569 1 16.23302467789176 20.175761326833516 12.180620090919835 0 0 0
570 1 18.163738348809414 22.250428439832955 12.215788272519497 0 0 0
571 1 18.201906371534292 20.1953863768584 14.283835859181748 0 0 0
572 1 16.304886703148895 22.30581982351412 14.243773801824437 0 0 0
573 1 20.313607469398345 20.34073817799368 12.226557539755737 0 0 0
574 1 22.38773008413274 22.3695240190134 12.255187558264092 0 0 0
575 1 22.20230447979984 20.296391995924708 14.125275506558955 0 0 0
576 1 20.20770557086808 22.312529579809645 14.214647860750391 0 0 0
577 1 0.1199789744987986 0.006624401307955576 16.176312782809283 0 0 0
578 1 2.1281980534192164 1.9946838167727383 16.19590849941406 0 0 0
579 1 1.962510119815129 24.272583732871606 18.23979837315846 0 -1 0
580 1 24.230883252048343 1.9798171765333121 18.19728599537736 -1 0 0
581 1 4.060314754122083 0.08007252985614935 16.29900929230219 0 0 0
582 1 5.979614371408062 2.0787402553175296 16.29247112172305 0 0 0
583 1 6.0216940982577825 0.007709418557448977 18.197197695044892 0 0 0
584 1 3.9825051624944923 2.1192660449325413 18.31441718122429 0 0 0
585 1 8.00187255096709 0.051964103883115634 16.200693963524277 0 0 0
586 1 10.106069156909859 2.094320184006039 16.304332589499808 0 0 0
587 1 10.046456468087367 24.21885914439282 18.170639810182916 0 -1 0
588 1 8.009067563577121 2.0435410406713097 18.32427056270617 0 0 0
589 1 12.108097082748122 24.197669747703554 16.175449653647583 0 -1 0
590 1 14.182576878987055 1.9296051354448334 16.09851142131654 0 0 0
591 1 14.138829709069723 0.005920334852263478 18.12806786199243 0 0 0
592 1 12.210320841679497 2.0773861073387723 18.118306042744454 0 0 0
593 1 16.2223385229252 0.0835548038238449 16.2655878673613 0 0 0
594 1 18.170251385972485 2.025044039580991 16.22017323772431 0 0 0
595 1 18.34308350130826 0.0694064879926883 18.339843693112414 0 0 0
596 1 16.103225017200796 2.0078640937539114 18.221823721992234 0 0 0
597 1 20.246040365302953 24.230419646748533 16.283002902661917 0 -1 0
598 1 22.239757756853827 2.028619442304419 16.31196681037171 0 0 0
599 1 22.224793423521234 0.018069121417621677 18.312723665967454 0 0 0
600 1 20.36569083910235 1.9609327931590064 18.327454623422796 0 0 0
601 1 0.1168239237725846 4.0696868458295645 16.11681785749123 0 0 0
602 1 2.0960089532057795 6.002476529538387 16.258031951681726 0 0 0
603 1 1.9901499059820313 4.1644698400024645 18.27960092142904 0 0 0
604 1 0.039443755149582295 6.1261927990294955 18.222373288738247 0 0 0
605 1 4.08950190912909 4.1185867326094705 16.217214967374325 0 0 0
606 1 6.082010876222983 6.066796679697835 16.08679568153191 0 0 0
607 1 6.093252459568088 4.099087960873305 18.126358397650232 0 0 0
608 1 3.9698385430685423 6.161393352992084 18.238083737964313 0 0 0
609 1 8.187835065148693 4.053939954100149 16.17880856119972 0 0 0
610 1 10.177469492746736 6.169764594386687 16.268537857061503 0 0 0
611 1 10.080109287982392 4.131803120058869 18.130038829420243 0 0 0
612 1 8.157073692836367 6.03255550082659 18.140302392521548 0 0 0
613 1 12.092141877255466 4.1085310326602915 16.17106592152783 0 0 0
614 1 14.07747933493111 6.005182187208058 16.132020405853176 0 0 0
615 1 14.11509378927764 4.006316389328016 18.194555435967423 0 0 0
616 1 12.171014958275954 5.993403743970395 18.196724910443518 0 0 0
617 1 16.3100132670207 4.08297881692321 16.31497602838789 0 0 0
618 1 18.22446531197031 5.968498285046544 16.145676777281647 0 0 0
619 1 18.10583087638059 3.9745393286107755 18.117495961306844 0 0 0
620 1 16.203028052096734 6.087471589805777 18.315009865709584 0 0 0
621 1 20.139777551521444 4.101308420901796 16.220630096486133 0 0 0
622 1 22.389747810510332 6.001451247207099 16.30611180971661 0 0 0
623 1 22.260827565242455 3.9338890299591647 18.187926523686816 0 0 0
624 1 20.230202592844236 5.979977933105536 18.149121704755405 0 0 0
625 1 0.0730996519853825 8.125850918323664 16.276384265812293 0 0 0
626 1 1.945104252863724 10.117177880607628 16.25363937240729 0 0 0
627 1 2.1187686431285777 7.9895850620090885 18.16113718676201 0 0 0
628 1 24.27440944661126 10.104569195443563 18.28446781997544 -1 0 0
629 1 4.112574870671413 8.115851374443551 16.214050272765594 0 0 0
630 1 6.05900916957483 10.16711304418841 16.233933674615777 0 0 0
631 1 5.987349706418974 8.081515783714837 18.120776895254746 0 0 0
632 1 4.1694506130737485 10.13145393049645 18.216209853827582 0 0 0
633 1 8.137355302608272 8.090570937223067 16.125741908087274 0 0 0
634 1 10.208724217286205 10.157919929247777 16.285250867402763 0 0 0
635 1 10.012789560336522 8.0991405759189 18.180659468954268 0 0 0
636 1 7.996189666546969 10.18472565491671 18.114082185145968 0 0 0
637 1 12.251662984072073 8.18977329934471 16.139842086536735 0 0 0
638 1 14.19865191350861 10.202710339221037 16.197671287971396 0 0 0
639 1 14.09069962577694 7.98361043304373 18.30554816598098 0 0 0
640 1 12.22017735531096 10.235810711342287 18.220625529827373 0 0 0
641 1 16.196930632161408 8.113134736815995 16.155521666442752 0 0 0
642 1 18.238268282885322 10.165030453614905 16.27183390570424 0 0 0
643 1 18.278069944127026 8.206550942988391 18.146698805895493 0 0 0
644 1 16.28614665882948 10.071894947098054 18.248375876985197 0 0 0
645 1 20.294848653415613 8.031317956210728 16.26089003370185 0 0 0
646 1 22.201467427074196 10.023046836004614 16.27317272955234 0 0 0
647 1 22.35667413877401 7.99725037482439 18.11204967353821 0 0 0
648 1 20.151524947519192 10.094792955075294 18.135195950470024 0 0 0
649 1 24.27988693718793 12.26975331757206 16.254008433639076 -1 0 0
650 1 2.098107555226007 14.093680683504175 16.26624765468121 0 0 0
651 1 2.0165548502800776 12.052368657264097 18.21502263770905 0 0 0
652 1 0.08874750504677532 14.154317321153039 18.131216619138705 0 0 0
653 1 4.037946249520381 12.122615689045103 16.271885781079476 0 0 0
654 1 6.138806775521396 14.255476188119722 16.123293728178037 0 0 0
655 1 6.120609000774849 12.14047602289844 18.2355168541011 0 0 0
656 1 4.122302421346448 14.241795569745262 18.138140708633298 0 0 0
657 1 8.100815676246217 12.179070670189834 16.150753880548642 0 0 0
658 1 10.161048531381436 14.282666927793839 16.158055431059587 0 0 0
659 1 10.029593561824688 12.093993587523695 18.205225510755657 0 0 0
660 1 8.05859534732932 14.28700256388262 18.33209117519999 0 0 0
661 1 12.21346720115443 12.043249802521078 16.289430971801945 0 0 0
662 1 14.254571045394787 14.24555995018713 16.26108279512314 0 0 0
663 1 14.064126152474957 12.053244646612201 18.297775611296654 0 0 0
664 1 12.155828497021378 14.214549438319889 18.132409842399603 0 0 0
665 1 16.192917726725767 12.15823307996999 16.093375055647165 0 0 0
666 1 18.18733130384345 14.197223696886665 16.27367357419509 0 0 0
667 1 18.17904881585112 12.168448009816206 18.200700980990984 0 0 0
668 1 16.317435865624546 14.15959355172915 18.248823911838148 0 0 0
669 1 20.141041934346333 12.091790558836324 16.113922362119855 0 0 0
670 1 22.312742724901874 14.196977425842535 16.214596135492712 0 0 0
671 1 22.287484280118942 12.213295959096072 18.12018452771715 0 0 0
672 1 20.209507493190237 14.25743804833034 18.241278288018087 0 0 0
673 1 24.275560661002785 16.08802947387473 16.151367412615272 -1 0 0
674 1 2.0285438120567907 18.26584923848549 16.113151225686607 0 0 0
675 1 2.0873049132629786 16.23867721088169 18.112883288565968 0 0 0
676 1 24.212866424039408 18.250988830358715 18.219271838941737 -1 0 0
677 1 4.0189817699086765 16.156606855130104 16.251414171686122 0 0 0
678 1 6.188897873123128 18.2665535804264 16.191026226557337 0 0 0
679 1 6.12477962971189 16.2062365677423 18.16299404485989 0 0 0
680 1 4.068759643611852 18.158330184395112 18.265409128666114 0 0 0
681 1 8.063556766921447 16.178581648775648 16.22177097230301 0 0 0
682 1 10.219578706684791 18.289323251295983 16.080884531625028 0 0 0
683 1 10.085087472051423 16.19014276826295 18.154506195434138 0 0 0
684 1 8.167014018011752 18.209600723509023 18.129360016185956 0 0 0
685 1 12.051662546406341 16.08241745140516 16.15010576653765 0 0 0
686 1 14.282152222612478 18.17240544791678 16.163363137358502 0 0 0
687 1 14.232186053701296 16.126004557705485 18.263601356110815 0 0 0
688 1 12.085990294914687 18.33388663116325 18.28260996074304 0 0 0
689 1 16.084688836189308 16.16526983369387 16.170094892908864 0 0 0
690 1 18.275300467652407 18.34495983403174 16.124930571487607 0 0 0
691 1 18.33770730390805 16.15165678262322 18.120545548468616 0 0 0
692 1 16.309034120025593 18.121455270171374 18.1887257703411 0 0 0
693 1 20.30578966495385 16.1768988793422 16.25946510435057 0 0 0
694 1 22.25023406349832 18.143905216250058 16.199969514738754 0 0 0
695 1 22.187269886113828 16.279975915122765 18.140205468328297 0 0 0
696 1 20.209759161397702 18.217225611187622 18.12084723037474 0 0 0
697 1 24.228412786111424 20.203696174767657 16.291609320031295 -1 0 0
698 1 2.0148724965890277 22.222050171786474 16.192237215317896 0 0 0
699 1 2.0749290593759757 20.36770093202484 18.34456454146633 0 0 0
700 1 0.04245321769381558 22.266229779958365 18.183911760262635 0 0 0
701 1 4.101171766487496 20.133879355343 16.24032524984345 0 0 0
702 1 5.981098178823523 22.307091486971867 16.281621536184858 0 0 0
703 1 6.059521363985035 20.260564496503473 18.18249273389461 0 0 0
704 1 4.0325841291353965 22.366458378607152 18.165969250454086 0 0 0
705 1 8.087712934551627 20.141291009192955 16.247991506014014 0 0 0
706 1 10.163509864843688 22.230298427862717 16.100677088732215 0 0 0
707 1 10.168314826713555 20.32229257473363 18.126303548152233 0 0 0
708 1 8.099177499319975 22.371231070820347 18.220607277618537 0 0 0
709 1 12.05238139719813 20.214142709003827 16.18651022733492 0 0 0
710 1 14.087710652403864 22.322934951748667 16.162734039874156 0 0 0
711 1 14.097674619240069 20.242325567841682 18.120818715140135 0 0 0
712 1 12.238851510607102 22.32233877357437 18.247767464473267 0 0 0
713 1 16.24938780244877 20.15079575647637 16.154279098359066 0 0 0
714 1 18.137506780378754 22.256457825760105 16.08167755007822 0 0 0
715 1 18.16285275704127 20.22128759269197 18.29557037392192 0 0 0
716 1 16.2624103130132 22.16513081286574 18.213571834540257 0 0 0
717 1 20.17906071147372 20.293377738820098 16.129656349406417 0 0 0
718 1 22.326984088575458 22.371576687757194 16.24439113516565 0 0 0
719 1 22.234451565555972 20.35246229923445 18.30886323338554 0 0 0
720 1 20.317395778609157 22.19585108412469 18.289170883718956 0 0 0
721 1 24.27189816583502 0.012473189184662514 20.36689062662278 -1 0 0
722 1 2.0997937167597907 1.9629975817995133 20.255357304422816 0 0 0
723 1 2.097328207656894 0.020186089417052484 22.182604832401314 0 0 0
724 1 0.09785270980459299 1.9154936857942928 22.362377144679137 0 0 0
725 1 4.034261674296233 24.265959896783322 20.29798523735627 0 -1 0
726 1 6.110359646899327 2.0745854369968106 20.35243960539924 0 0 0
727 1 5.973486315393115 0.01950281209289226 22.21876284524042 0 0 0
728 1 3.9491729471549264 2.0647228328509826 22.216651726468303 0 0 0
729 1 8.080284924479333 0.08872572416845974 20.343246099303126 0 0 0
730 1 10.126934901607193 2.1448913120850412 20.22328221329175 0 0 0
731 1 10.238231362734563 0.11951347980625622 22.378055103748597 0 0 0
732 1 8.100084757413754 2.009517852973434 22.226554924506484 0 0 0
733 1 12.240349921980103 0.03113871961419412 20.158460555760403 0 0 0
734 1 14.270124719727376 1.9061644580220638 20.261045976826477 0 0 0
735 1 14.282314115607791 0.028341020153994208 22.20252572818078 0 0 0
736 1 12.136196860720494 2.1156381293622024 22.35004019053422 0 0 0
737 1 16.106484953028374 0.052605547910838185 20.231443737457248 0 0 0
738 1 18.229004208540545 2.1237329409544974 20.294538622239855 0 0 0
739 1 18.21065162305983 0.04682876661737857 22.366080538281743 0 0 0
740 1 16.3155003971213 2.1201744177076844 22.271438413055815 0 0 0
741 1 20.324027811528197 0.025428354398081252 20.18435236855147 0 0 0
742 1 22.254332130523085 1.9401177015319082 20.1932096467834 0 0 0
743 1 22.192068948688483 0.09782060733894846 22.345947545706736 0 0 0
744 1 20.18027297271894 2.0428524872184974 22.321752681288284 0 0 0
745 1 24.204288149301092 4.1409253035350355 20.35157651334143 -1 0 0
746 1 1.9489232364873974 6.1728356436909335 20.33366351353175 0 0 0
747 1 2.079288289851643 3.993287536568608 22.388627108593298 0 0 0
748 1 0.11505771405764748 6.170000166881363 22.222804775083347 0 0 0
749 1 4.095252801517608 4.0538351064379485 20.146633902609643 0 0 0
750 1 6.1588656927476935 6.085698010498051 20.291462440752174 0 0 0
751 1 6.166409032107986 4.121602638937348 22.340552620005585 0 0 0
752 1 4.076372904473158 6.044405480366854 22.392908525726714 0 0 0
753 1 8.042438659995067 4.056558537095114 20.319332957579444 0 0 0
754 1 10.218108683364981 6.152641315254215 20.28758547760434 0 0 0
755 1 10.120610824392926 3.961125571928511 22.322487402487305 0 0 0
756 1 8.016263321170706 6.072638916055503 22.192262144851153 0 0 0
757 1 12.210760903107355 4.058498525344067 20.284715457742436 0 0 0
758 1 14.278879750028196 5.981958723900354 20.345272593263196 0 0 0
759 1 14.12920375533132 4.03251585350489 22.178949856694764 0 0 0
760 1 12.166432377126268 6.013962361206748 22.17540480182525 0 0 0
761 1 16.256988310300272 4.0125312167045335 20.272159153102972 0 0 0
762 1 18.330278385013933 5.968816929242488 20.271129778503035 0 0 0
763 1 18.209343857292243 3.95720951077864 22.26524765660532 0 0 0
764 1 16.26971821376575 6.149018760972664 22.388315667581423 0 0 0
765 1 20.195701324523288 3.932161262893193 20.214345445895727 0 0 0
766 1 22.182864120541076 6.027273933883883 20.19800678643771 0 0 0
767 1 22.169314311823953 4.030638825195208 22.311735055854886 0 0 0
768 1 20.286802605836094 6.1363962872426 22.162399686392117 0 0 0
769 1 24.209339396520207 8.127237315171975 20.34755609537361 -1 0 0
770 1 2.1234946457941524 10.244511862322462 20.325870053598596 0 0 0
771 1 1.9392037655199894 8.042687094464286 22.376996661267242 0 0 0
772 1 0.11554259273947337 10.209356172328981 22.369188333178958 0 0 0
773 1 4.145002100195271 8.080297981919859 20.31818212707908 0 0 0
774 1 6.015683513274734 10.152807608464643 20.332475465257872 0 0 0
775 1 6.18763014681294 8.194877485099656 22.32089206993854 0 0 0
776 1 4.147774818901799 10.146381282536955 22.350215598621972 0 0 0
777 1 8.168808039999012 7.996728263393384 20.241922852598094 0 0 0
778 1 10.047077627797647 10.16369039505659 20.359469716134235 0 0 0
779 1 10.098118034830838 8.214811401886312 22.310231503245994 0 0 0
780 1 8.13903961285904 10.103773321890632 22.15822101585717 0 0 0
781 1 12.125795325681471 8.09203872849794 20.364909864885224 0 0 0
782 1 14.224173688408532 10.027181082229214 20.207449026404625 0 0 0
783 1 14.289694450979443 8.08963761152217 22.354336853120166 0 0 0
784 1 12.038882628348134 10.015334647116408 22.3294140854545 0 0 0
785 1 16.14469678617301 8.138885209820645 20.273721455588806 0 0 0
786 1 18.117216852648284 10.133642459720672 20.30382052533972 0 0 0
787 1 18.311019113197 8.063235501983778 22.374081841362212 0 0 0
788 1 16.08431848034464 10.105699152322812 22.365653089494746 0 0 0
789 1 20.28185498732694 8.046772003912727 20.367069761192923 0 0 0
790 1 22.392726799360346 10.19931684938926 20.333287685310136 0 0 0
791 1 22.349772896335818 8.16806871612932 22.22591198548251 0 0 0
792 1 20.368442230335642 10.223565251146706 22.381176022694525 0 0 0
793 1 0.06159357980899214 12.233295849730863 20.283346426632882 0 0 0
794 1 2.032853783763877 14.173543719480998 20.254293317144874 0 0 0
795 1 2.104555783960761 12.204061028516879 22.238706283198532 0 0 0
796 1 0.06582923488031571 14.16695063346622 22.34929666677224 0 0 0
797 1 4.0994878055944515 12.051548625948627 20.137756318602598 0 0 0
798 1 5.9787274053430775 14.201501601108582 20.22240983196181 0 0 0
799 1 6.018689054764661 12.051943429681444 22.318222656065235 0 0 0
800 1 3.965571755373651 14.06949256495316 22.37153916778813 0 0 0
801 1 8.027446217447261 12.178576636122807 20.29752331603669 0 0 0
802 1 10.08104516558165 14.14609793078671 20.25292273225399 0 0 0
803 1 10.124771484341366 12.149337325337964 22.17742695518882 0 0 0
804 1 8.162674577991792 14.18663230805268 22.17920144141847 0 0 0
805 1 12.0598272769292 12.217043349084928 20.247568070421725 0 0 0
806 1 14.274144346890571 14.174038189854024 20.16485687659814 0 0 0
807 1 14.273743673925633 12.134927668136044 22.394318362511374 0 0 0
808 1 12.190926597305072 14.188320906373354 22.239473416993615 0 0 0
809 1 16.21315144474299 12.146331795470942 20.278486480148736 0 0 0
810 1 18.214986656322136 14.120732806169302 20.181273287484085 0 0 0
811 1 18.321432079363813 12.1639578676475 22.384881551559026 0 0 0
812 1 16.14945911410705 14.094330797213749 22.227708771486164 0 0 0
813 1 20.333588394468457 12.0601458313829 20.15098805242264 0 0 0
814 1 22.338706222299347 14.24547818516869 20.13685813017509 0 0 0
815 1 22.338683635193707 12.080856700637776 22.263567619113516 0 0 0
816 1 20.21767810132712 14.060849004912118 22.299225557997925 0 0 0
817 1 0.11915650874337019 16.30344244982276 20.24725417116529 0 0 0
818 1 2.02545949833489 18.267788514496193 20.356563137539926 0 0 0
819 1 2.0000381804327656 16.18669853349528 22.15725245520577 0 0 0
820 1 24.268825670596595 18.198045716999584 22.37436561203532 -1 0 0
821 1 4.104089733070736 16.16614371985483 20.267499600154114 0 0 0
822 1 5.990220165045568 18.210313920874757 20.141068142098874 0 0 0
823 1 6.081980647727372 16.16374635394837 22.31997081026666 0 0 0
824 1 4.031274124729109 18.13921432213588 22.155112137794546 0 0 0
825 1 8.210430488879993 16.285226606039902 20.33356771262529 0 0 0
826 1 10.143574691553868 18.16984094585517 20.31177698792041 0 0 0
827 1 10.040423786060616 16.247572320777724 22.382995311202478 0 0 0
828 1 8.114983283083411 18.289038782913252 22.174824423091405 0 0 0
829 1 12.190535988100121 16.12835199876146 20.142043183861322 0 0 0
830 1 14.109129838521651 18.265196033418267 20.22473366086126 0 0 0
831 1 14.12402151662345 16.204629890343465 22.32956700266086 0 0 0
832 1 12.072600310539174 18.16841923191371 22.202030773780788 0 0 0
833 1 16.152012446556245 16.313189270828474 20.14207481414642 0 0 0
834 1 18.122049605109286 18.33771307177502 20.29859732281817 0 0 0
835 1 18.19575374112034 16.178127009541786 22.335649368809836 0 0 0
836 1 16.19541980160187 18.28560552262729 22.312018796911936 0 0 0
837 1 20.34248295741737 16.08106531374206 20.274728062816305 0 0 0
838 1 22.3552281520703 18.299551845544272 20.202868062626976 0 0 0
839 1 22.177465939979285 16.145053231858206 22.304667840893224 0 0 0
840 1 20.33940391915357 18.19666921403802 22.279480337074247 0 0 0
841 1 24.262796653920223 20.173362437208816 20.282482168596463 -1 0 0
842 1 1.9302096312610477 22.253272604429288 20.357662643076694 0 0 0
843 1 1.9243145068824823 20.268917173882443 22.215941442205075 0 0 0
844 1 24.191833020491444 22.312575399762753 22.364743812591648 -1 0 0
845 1 4.129363218340726 20.18761065258533 20.23223800168477 0 0 0
846 1 6.171311842415626 22.188135479443304 20.2380030036103 0 0 0
847 1 6.048408789529189 20.211525617093557 22.19604649143342 0 0 0
848 1 4.153604305602426 22.352564259971288 22.217517337455654 0 0 0
849 1 8.13130328040165 20.284233710539635 20.335973039663383 0 0 0
850 1 10.178962141505425 22.256712281676805 20.32831814208921 0 0 0
851 1 10.204063804912876 20.195369170711082 22.334652141155512 0 0 0
852 1 8.00449188062199 22.19003761378817 22.312174937798257 0 0 0
853 1 12.269443547799924 20.13770787332566 20.316226984349186 0 0 0
854 1 14.176137486901663 22.192742356265775 20.145781758882002 0 0 0
855 1 14.06245467480619 20.140719467667267 22.317093083747704 0 0 0
856 1 12.243306175420667 22.311890295183698 22.37019115245677 0 0 0
857 1 16.236062442770255 20.351475639707164 20.31107655831663 0 0 0
858 1 18.141655867042324 22.390157380362577 20.340091753886124 0 0 0
859 1 18.111125278140474 20.35754970698969 22.182925375712998 0 0 0
860 1 16.277597197050973 22.291090835694263 22.23367551352767 0 0 0
861 1 20.369070486053392 20.347659099352388 20.246482815573216 0 0 0
862 1 22.195302929338208 22.246333387275847 20.130239945165926 0 0 0
863 1 22.321537770408455 20.25030725492179 22.15903347049096 0 0 0
864 1 20.323893032089757 22.19519033255064 22.273919178675357 0 0 0

Velocities

1 0 0 0
2 0 0 0
3 0 0 0
4 0 0 0
5 0 0 0
6 0 0 0
7 0 0 0
8 0 0 0
9 0 0 0
10 0 0 0
11 0 0 0
12 0 0 0
13 0 0 0
14 0 0 0
15 0 0 0
16 0 0 0
17 0 0 0
18 0 0 0
19 0 0 0
20 0 0 0
21 0 0 0
22 0 0 0
23 0 0 0
24 0 0 0
25 0 0 0
26 0 0 0
27 0 0 0
28 0 0 0
29 0 0 0
30 0 0 0
31 0 0 0
32 0 0 0
33 0 0 0
34 0 0 0
35 0 0 0
36 0 0 0
37 0 0 0
38 0 0 0
39 0 0 0
40 0 0 0
41 0 0 0
42 0 0 0
43 0 0 0
44 0 0 0
45 0 0 0
46 0 0 0
47 0 0 0
48 0 0 0
49 0 0 0
50 0 0 0
51 0 0 0
52 0 0 0
53 0 0 0
54 0 0 0
55 0 0 0
56 0 0 0
57 0 0 0
58 0 0 0
59 0 0 0
60 0 0 0
61 0 0 0
62 0 0 0
63 0 0 0
64 0 0 0
65 0 0 0
66 0 0 0
67 0 0 0
68 0 0 0
69 0 0 0
70 0 0 0
71 0 0 0
72 0 0 0
73 0 0 0
74 0 0 0
75 0 0 0
76 0 0 0
77 0 0 0
78 0 0 0
79 0 0 0
80 0 0 0
81 0 0 0
82 0 0 0
83 0 0 0
84 0 0 0
85 0 0 0
86 0 0 0
87 0 0 0
88 0 0 0
89 0 0 0
90 0 0 0
91 0 0 0
92 0 0 0
93 0 0 0
94 0 0 0
95 0 0 0
96 0 0 0
97 0 0 0
98 0 0 0
99 0 0 0
100 0 0 0
101 0 0 0
102 0 0 0
103 0 0 0
104 0 0 0
105 0 0 0
106 0 0 0
107 0 0 0
108 0 0 0
109 0 0 0
110 0 0 0
111 0 0 0
112 0 0 0
113 0 0 0
114 0 0 0
115 0 0 0
116 0 0 0
117 0 0 0
118 0 0 0
119 0 0 0
120 0 0 0
121 0 0 0
122 0 0 0
123 0 0 0
124 0 0 0
125 0 0 0
126 0 0 0
127 0 0 0
128 0 0 0
129 0 0 0
130 0 0 0
131 0 0 0
132 0 0 0
133 0 0 0
134 0 0 0
135 0 0 0
136 0 0 0
137 0 0 0
138 0 0 0
139 0 0 0
140 0 0 0
141 0 0 0
142 0 0 0
143 0 0 0
144 0 0 0
145 0 0 0
146 0 0 0
147 0 0 0
148 0 0 0
149 0 0 0
150 0 0 0
151 0 0 0
152 0 0 0
153 0 0 0
154 0 0 0
155 0 0 0
156 0 0 0
157 0 0 0
158 0 0 0
159 0 0 0
160 0 0 0
161 0 0 0
162 0 0 0
163 0 0 0
164 0 0 0
165 0 0 0
166 0 0 0
167 0 0 0
168 0 0 0
169 0 0 0
170 0 0 0
171 0 0 0
172 0 0 0
173 0 0 0
174 0 0 0
175 0 0 0
176 0 0 0
177 0 0 0
178 0 0 0
179 0 0 0
180 0 0 0
181 0 0 0
182 0 0 0
183 0 0 0
184 0 0 0
185 0 0 0
186 0 0 0
187 0 0 0
188 0 0 0
189 0 0 0
190 0 0 0
191 0 0 0
192 0 0 0
193 0 0 0
194 0 0 0
195 0 0 0
196 0 0 0
197 0 0 0
198 0 0 0
199 0 0 0
200 0 0 0
201 0 0 0
202 0 0 0
203 0 0 0
204 0 0 0
205 0 0 0
206 0 0 0
207 0 0 0
208 0 0 0
209 0 0 0
210 0 0 0
211 0 0 0
212 0 0 0
213 0 0 0
214 0 0 0
215 0 0 0
216 0 0 0
217 0 0 0
218 0 0 0
219 0 0 0
220 0 0 0
221 0 0 0
222 0 0 0
223 0 0 0
224 0 0 0
225 0 0 0
226 0 0 0
227 0 0 0
228 0 0 0
229 0 0 0
230 0 0 0
231 0 0 0
232 0 0 0
233 0 0 0
234 0 0 0
235 0 0 0
236 0 0 0
237 0 0 0
238 0 0 0
239 0 0 0
240 0 0 0
241 0 0 0
242 0 0 0
243 0 0 0
244 0 0 0
245 0 0 0
246 0 0 0
247 0 0 0
248 0 0 0
249 0 0 0
250 0 0 0
251 0 0 0
252 0 0 0
253 0 0 0
254 0 0 0
255 0 0 0
256 0 0 0
257 0 0 0
258 0 0 0
259 0 0 0
260 0 0 0
261 0 0 0
262 0 0 0
263 0 0 0
264 0 0 0
265 0 0 0
266 0 0 0
267 0 0 0
268 0 0 0
269 0 0 0
270 0 0 0
271 0 0 0
272 0 0 0
273 0 0 0
274 0 0 0
275 0 0 0
276 0 0 0
277 0 0 0
278 0 0 0
279 0 0 0
280 0 0 0
281 0 0 0
282 0 0 0
283 0 0 0
284 0 0 0
285 0 0 0
286 0 0 0
287 0 0 0
288 0 0 0
289 0 0 0
290 0 0 0
291 0 0 0
292 0 0 0
293 0 0 0
294 0 0 0
295 0 0 0
296 0 0 0
297 0 0 0
298 0 0 0
299 0 0 0
300 0 0 0
301 0 0 0
302 0 0 0
303 0 0 0
304 0 0 0
305 0 0 0
306 0 0 0
307 0 0 0
308 0 0 0
309 0 0 0
310 0 0 0
311 0 0 0
312 0 0 0
313 0 0 0
314 0 0 0
315 0 0 0
316 0 0 0
317 0 0 0
318 0 0 0
319 0 0 0
320 0 0 0
321 0 0 0
322 0 0 0
323 0 0 0
324 0 0 0
325 0 0 0
326 0 0 0
327 0 0 0
328 0 0 0
329 0 0 0
330 0 0 0
331 0 0 0
332 0 0 0
333 0 0 0
334 0 0 0
335 0 0 0
336 0 0 0
337 0 0 0
338 0 0 0
339 0 0 0
340 0 0 0
341 0 0 0
342 0 0 0
343 0 0 0
344 0 0 0
345 0 0 0
346 0 0 0
347 0 0 0
348 0 0 0
349 0 0 0
350 0 0 0
351 0 0 0
352 0 0 0
353 0 0 0
354 0 0 0
355 0 0 0
356 0 0 0
357 0 0 0
358 0 0 0
359 0 0 0
360 0 0 0
361 0 0 0
362 0 0 0
363 0 0 0
364 0 0 0
365 0 0 0
366 0 0 0
367 0 0 0
368 0 0 0
369 0 0 0
370 0 0 0
371 0 0 0
372 0 0 0
373 0 0 0
374 0 0 0
375 0 0 0
376 0 0 0
377 0 0 0
378 0 0 0
379 0 0 0
380 0 0 0
381 0 0 0
382 0 0 0
383 0 0 0
384 0 0 0
385 0 0 0
386 0 0 0
387 0 0 0
388 0 0 0
389 0 0 0
390 0 0 0
391 0 0 0
392 0 0 0
393 0 0 0
394 0 0 0
395 0 0 0
396 0 0 0
397 0 0 0
398 0 0 0
399 0 0 0
400 0 0 0
401 0 0 0
402 0 0 0
403 0 0 0
404 0 0 0
405 0 0 0
406 0 0 0
407 0 0 0
408 0 0 0
409 0 0 0
410 0 0 0
411 0 0 0
412 0 0 0
413 0 0 0
414 0 0 0
415 0 0 0
416 0 0 0
417 0 0 0
418 0 0 0
419 0 0 0
420 0 0 0
421 0 0 0
422 0 0 0
423 0 0 0
424 0 0 0
425 0 0 0
426 0 0 0
427 0 0 0
428 0 0 0
429 0 0 0
430 0 0 0
431 0 0 0
432 0 0 0
433 0 0 0
434 0 0 0
435 0 0 0
436 0 0 0
437 0 0 0
438 0 0 0
439 0 0 0
440 0 0 0
441 0 0 0
442 0 0 0
443 0 0 0
444 0 0 0
445 0 0 0
446 0 0 0
447 0 0 0
448 0 0 0
449 0 0 0
450 0 0 0
451 0 0 0
452 0 0 0
453 0 0 0
454 0 0 0
455 0 0 0
456 0 0 0
457 0 0 0
458 0 0 0
459 0 0 0
460 0 0 0
461 0 0 0
462 0 0 0
463 0 0 0
464 0 0 0
465 0 0 0
466 0 0 0
467 0 0 0
468 0 0 0
469 0 0 0
470 0 0 0
471 0 0 0
472 0 0 0
473 0 0 0
474 0 0 0
475 0 0 0
476 0 0 0
477 0 0 0
478 0 0 0
479 0 0 0
480 0 0 0
481 0 0 0
482 0 0 0
483 0 0 0
484 0 0 0
485 0 0 0
486 0 0 0
487 0 0 0
488 0 0 0
489 0 0 0
490 0 0 0
491 0 0 0
492 0 0 0
493 0 0 0
494 0 0 0
495 0 0 0
496 0 0 0
497 0 0 0
498 0 0 0
499 0 0 0
500 0 0 0
501 0 0 0
502 0 0 0
503 0 0 0
504 0 0 0
505 0 0 0
506 0 0 0
507 0 0 0
508 0 0 0
509 0 0 0
510 0 0 0
511 0 0 0
512 0 0 0
513 0 0 0
514 0 0 0
515 0 0 0
516 0 0 0
517 0 0 0
518 0 0 0
519 0 0 0
520 0 0 0
521 0 0 0
522 0 0 0
523 0 0 0
524 0 0 0
525 0 0 0
526 0 0 0
527 0 0 0
528 0 0 0
529 0 0 0
530 0 0 0
531 0 0 0
532 0 0 0
533 0 0 0
534 0 0 0
535 0 0 0
536 0 0 0
537 0 0 0
538 0 0 0
539 0 0 0
540 0 0 0
541 0 0 0
542 0 0 0
543 0 0 0
544 0 0 0
545 0 0 0
546 0 0 0
547 0 0 0
548 0 0 0
549 0 0 0
550 0 0 0
551 0 0 0
552 0 0 0
553 0 0 0
554 0 0 0
555 0 0 0
556 0 0 0
557 0 0 0
558 0 0 0
559 0 0 0
560 0 0 0
561 0 0 0
562 0 0 0
563 0 0 0
564 0 0 0
565 0 0 0
566 0 0 0
567 0 0 0
568 0 0 0
569 0 0 0
570 0 0 0
571 0 0 0
572 0 0 0
573 0 0 0
574 0 0 0
575 0 0 0
576 0 0 0
577 0 0 0
578 0 0 0
579 0 0 0
580 0 0 0
581 0 0 0
582 0 0 0
583 0 0 0
584 0 0 0
585 0 0 0
586 0 0 0
587 0 0 0
588 0 0 0
589 0 0 0
590 0 0 0
591 0 0 0
592 0 0 0
593 0 0 0
594 0 0 0
595 0 0 0
596 0 0 0
597 0 0 0
598 0 0 0
599 0 0 0
600 0 0 0
601 0 0 0
602 0 0 0
603 0 0 0
604 0 0 0
605 0 0 0
606 0 0 0
607 0 0 0
608 0 0 0
609 0 0 0
610 0 0 0
611 0 0 0
612 0 0 0
613 0 0 0
614 0 0 0
615 0 0 0
616 0 0 0
617 0 0 0
618 0 0 0
619 0 0 0
620 0 0 0
621 0 0 0
622 0 0 0
623 0 0 0
624 0 0 0
625 0 0 0
626 0 0 0
627 0 0 0
628 0 0 0
629 0 0 0
630 0 0 0
631 0 0 0
632 0 0 0
633 0 0 0
634 0 0 0
635 0 0 0
636 0 0 0
637 0 0 0
638 0 0 0
639 0 0 0
640 0 0 0
641 0 0 0
642 0 0 0
643 0 0 0
644 0 0 0
645 0 0 0
646 0 0 0
647 0 0 0
648 0 0 0
649 0 0 0
650 0 0 0
651 0 0 0
652 0 0 0
653 0 0 0
654 0 0 0
655 0 0 0
656 0 0 0
657 0 0 0
658 0 0 0
659 0 0 0
660 0 0 0
661 0 0 0
662 0 0 0
663 0 0 0
664 0 0 0
665 0 0 0
666 0 0 0
667 0 0 0
668 0 0 0
669 0 0 0
670 0 0 0
671 0 0 0
672 0 0 0
673 0 0 0
674 0 0 0
675 0 0 0
676 0 0 0
677 0 0 0
678 0 0 0
679 0 0 0
680 0 0 0
681 0 0 0
682 0 0 0
683 0 0 0
684 0 0 0
685 0 0 0
686 0 0 0
687 0 0 0
688 0 0 0
689 0 0 0
690 0 0 0
691 0 0 0
692 0 0 0
693 0 0 0
694 0 0 0
695 0 0 0
696 0 0 0
697 0 0 0
698 0 0 0
699 0 0 0
700 0 0 0
701 0 0 0
702 0 0 0
703 0 0 0
704 0 0 0
705 0 0 0
706 0 0 0
707 0 0 0
708 0 0 0
709 0 0 0
710 0 0 0
711 0 0 0
712 0 0 0
713 0 0 0
714 0 0 0
715 0 0 0
716 0 0 0
717 0 0 0
718 0 0 0
719 0 0 0
720 0 0 0
721 0 0 0
722 0 0 0
723 0 0 0
724 0 0 0
725 0 0 0
726 0 0 0
727 0 0 0
728 0 0 0
729 0 0 0
730 0 0 0
731 0 0 0
732 0 0 0
733 0 0 0
734 0 0 0
735 0 0 0
736 0 0 0
737 0 0 0
738 0 0 0
739 0 0 0
740 0 0 0
741 0 0 0
742 0 0 0
743 0 0 0
744 0 0 0
745 0 0 0
746 0 0 0
747 0 0 0
748 0 0 0
749 0 0 0
750 0 0 0
751 0 0 0
752 0 0 0
753 0 0 0
754 0 0 0
755 0 0 0
756 0 0 0
757 0 0 0
758 0 0 0
759 0 0 0
760 0 0 0
761 0 0 0
762 0 0 0
763 0 0 0
764 0 0 0
765 0 0 0
766 0 0 0
767 0 0 0
768 0 0 0
769 0 0 0
770 0 0 0
771 0 0 0
772 0 0 0
773 0 0 0
774 0 0 0
775 0 0 0
776 0 0 0
777 0 0 0
778 0 0 0
779 0 0 0
780 0 0 0
781 0 0 0
782 0 0 0
783 0 0 0
784 0 0 0
785 0 0 0
786 0 0 0
787 0 0 0
788 0 0 0
789 0 0 0
790 0 0 0
791 0 0 0
792 0 0 0
793 0 0 0
794 0 0 0
795 0 0 0
796 0 0 0
797 0 0 0
798 0 0 0
799 0 0 0
800 0 0 0
801 0 0 0
802 0 0 0
803 0 0 0
804 0 0 0
805 0 0 0
806 0 0 0
807 0 0 0
808 0 0 0
809 0 0 0
810 0 0 0
811 0 0 0
812 0 0 0
813 0 0 0
814 0 0 0
815 0 0 0
816 0 0 0
817 0 0 0
818 0 0 0
819 0 0 0
820 0 0 0
821 0 0 0
822 0 0 0
823 0 0 0
824 0 0 0
825 0 0 0
826 0 0 0
827 0 0 0
828 0 0 0
829 0 0 0
830 0 0 0
831 0 0 0
832 0 0 0
833 0 0 0
834 0 0 0
835 0 0 0
836 0 0 0
837 0 0 0
838 0 0 0
839 0 0 0
840 0 0 0
841 0 0 0
842 0 0 0
843 0 0 0
844 0 0 0
845 0 0 0
846 0 0 0
847 0 0 0
848 0 0 0
849 0 0 0
850 0 0 0
851 0 0 0
852 0 0 0
853 0 0 0
854 0 0 0
855 0 0 0
856 0 0 0
857 0 0 0
858 0 0 0
859 0 0 0
860 0 0 0
861 0 0 0
862 0 0 0
863 0 0 0
864 0 0 0
